    1C
    1UUSER                                                              
    1UDATE              02.september.2024                               
    1UTIME              09:09:05                                        
    1UHOST                                                              
    1UPGM               CalculiX                                        
    1UVERSION           Version 2.20                             
    1UCOMPILETIME       Sun Jul 31 18:08:37 CEST 2022                    
    1UDIR                                                               
    1UDBN                                                               
    1UMAT    1EL                                                        
    2C                            90                                     1
 -1         1 1.00000E+00 0.00000E+00 0.00000E+00
 -1         2 0.00000E+00 0.00000E+00 0.00000E+00
 -1         3 1.00000E+00 1.00000E+00 0.00000E+00
 -1         4 5.00000E-01 0.00000E+00 0.00000E+00
 -1         5 5.00000E-01 5.00000E-01 0.00000E+00
 -1         6 1.00000E+00 5.00000E-01 0.00000E+00
 -1         7 0.00000E+00 1.00000E+00 0.00000E+00
 -1         8 0.00000E+00 5.00000E-01 0.00000E+00
 -1         9 5.00000E-01 1.00000E+00 0.00000E+00
 -1        10 1.00000E+00 0.00000E+00 8.00000E+00
 -1        11 1.00000E+00 1.00000E+00 8.00000E+00
 -1        12 0.00000E+00 0.00000E+00 8.00000E+00
 -1        13 1.00000E+00 5.00000E-01 8.00000E+00
 -1        14 5.00000E-01 5.00000E-01 8.00000E+00
 -1        15 5.00000E-01 0.00000E+00 8.00000E+00
 -1        16 0.00000E+00 1.00000E+00 8.00000E+00
 -1        17 5.00000E-01 1.00000E+00 8.00000E+00
 -1        18 0.00000E+00 5.00000E-01 8.00000E+00
 -1        19 1.00000E+00 0.00000E+00 2.00000E+00
 -1        20 1.00000E+00 0.00000E+00 1.00000E+00
 -1        21 5.00000E-01 0.00000E+00 1.00000E+00
 -1        22 0.00000E+00 0.00000E+00 2.00000E+00
 -1        23 5.00000E-01 0.00000E+00 2.00000E+00
 -1        24 0.00000E+00 0.00000E+00 1.00000E+00
 -1        25 1.00000E+00 0.00000E+00 4.00000E+00
 -1        26 1.00000E+00 0.00000E+00 3.00000E+00
 -1        27 5.00000E-01 0.00000E+00 3.00000E+00
 -1        28 0.00000E+00 0.00000E+00 4.00000E+00
 -1        29 5.00000E-01 0.00000E+00 4.00000E+00
 -1        30 0.00000E+00 0.00000E+00 3.00000E+00
 -1        31 1.00000E+00 0.00000E+00 6.00000E+00
 -1        32 1.00000E+00 0.00000E+00 5.00000E+00
 -1        33 5.00000E-01 0.00000E+00 5.00000E+00
 -1        34 0.00000E+00 0.00000E+00 6.00000E+00
 -1        35 5.00000E-01 0.00000E+00 6.00000E+00
 -1        36 0.00000E+00 0.00000E+00 5.00000E+00
 -1        37 1.00000E+00 0.00000E+00 7.00000E+00
 -1        38 5.00000E-01 0.00000E+00 7.00000E+00
 -1        39 0.00000E+00 0.00000E+00 7.00000E+00
 -1        40 0.00000E+00 1.00000E+00 2.00000E+00
 -1        41 0.00000E+00 5.00000E-01 1.00000E+00
 -1        42 0.00000E+00 1.00000E+00 1.00000E+00
 -1        43 0.00000E+00 5.00000E-01 2.00000E+00
 -1        44 0.00000E+00 1.00000E+00 4.00000E+00
 -1        45 0.00000E+00 5.00000E-01 3.00000E+00
 -1        46 0.00000E+00 1.00000E+00 3.00000E+00
 -1        47 0.00000E+00 5.00000E-01 4.00000E+00
 -1        48 0.00000E+00 1.00000E+00 6.00000E+00
 -1        49 0.00000E+00 5.00000E-01 5.00000E+00
 -1        50 0.00000E+00 1.00000E+00 5.00000E+00
 -1        51 0.00000E+00 5.00000E-01 6.00000E+00
 -1        52 0.00000E+00 5.00000E-01 7.00000E+00
 -1        53 0.00000E+00 1.00000E+00 7.00000E+00
 -1        54 1.00000E+00 1.00000E+00 2.00000E+00
 -1        55 5.00000E-01 1.00000E+00 1.00000E+00
 -1        56 1.00000E+00 1.00000E+00 1.00000E+00
 -1        57 5.00000E-01 1.00000E+00 2.00000E+00
 -1        58 1.00000E+00 1.00000E+00 3.80000E+00
 -1        59 5.00000E-01 1.00000E+00 3.00000E+00
 -1        60 1.00000E+00 1.00000E+00 3.00000E+00
 -1        61 5.00000E-01 1.00000E+00 4.00000E+00
 -1        62 1.00000E+00 1.00000E+00 6.00000E+00
 -1        63 5.00000E-01 1.00000E+00 5.00000E+00
 -1        64 1.00000E+00 1.00000E+00 5.00000E+00
 -1        65 5.00000E-01 1.00000E+00 6.00000E+00
 -1        66 5.00000E-01 1.00000E+00 7.00000E+00
 -1        67 1.00000E+00 1.00000E+00 7.00000E+00
 -1        68 1.00000E+00 5.00000E-01 1.00000E+00
 -1        69 1.00000E+00 5.00000E-01 2.00000E+00
 -1        70 1.00000E+00 5.00000E-01 3.00000E+00
 -1        71 1.00000E+00 5.00000E-01 4.00000E+00
 -1        72 1.00000E+00 5.00000E-01 5.00000E+00
 -1        73 1.00000E+00 5.00000E-01 6.00000E+00
 -1        74 1.00000E+00 5.00000E-01 7.00000E+00
 -1       149 4.99871E-01 4.99871E-01 3.99987E+00
 -1       150 5.00000E-01 5.00000E-01 2.00000E+00
 -1       151 5.00000E-01 5.00000E-01 1.00000E+00
 -1       152 2.49935E-01 2.49935E-01 2.99994E+00
 -1       153 2.49935E-01 7.49935E-01 3.99994E+00
 -1       154 2.49935E-01 2.49935E-01 3.99994E+00
 -1       155 2.49935E-01 7.49935E-01 4.99994E+00
 -1       156 2.49935E-01 2.49935E-01 4.99994E+00
 -1       157 7.49935E-01 7.49935E-01 3.99994E+00
 -1       158 2.49935E-01 7.49935E-01 2.99994E+00
 -1       159 7.49935E-01 7.49935E-01 4.99994E+00
 -1       160 5.00000E-01 5.00000E-01 7.00000E+00
 -1       161 5.00000E-01 5.00000E-01 6.00000E+00
 -1       162 7.49935E-01 2.49935E-01 2.99994E+00
 -1       163 7.49935E-01 2.49935E-01 3.99994E+00
 -1       164 7.49935E-01 2.49935E-01 4.99994E+00
 -3
    3C                            31                                     1
 -1        37    6    0    1
 -2         2        22        19        40        24        23        21        41        43       150
 -1        38    6    0    1
 -2         2         3        54         1         5        56       151         4         6        68
 -1        39    6    0    1
 -2        22        44        28       149        45        47        30       152       153       154
 -1        40    6    0    1
 -2        28        34       149        48        36       156       154        49        51       155
 -1        41    6    0    1
 -2        40         7        54         2        42        55        57        41         8       151
 -1        42    6    0    1
 -2        54         2        19        40       151        21        69        57        41       150
 -1        43    6    0    1
 -2        40        44       149        58        46       153       158        59        61       157
 -1        44    6    0    1
 -2        44        48       149        62        50       155       153        63        65       159
 -1        45    6    0    1
 -2        34        16        11        48        52        17       160        51        53        66
 -1        46    6    0    1
 -2        11        62        31        34        67        73        74       160       161        35
 -1        47    6    0    1
 -2        12        11        34        16        14       160        39        18        17        52
 -1        48    6    0    1
 -2        22        19        40       149        23       150        43       152       162       158
 -1        49    6    0    1
 -2         7         3        54         2         9        56        55         8         5       151
 -1        50    6    0    1
 -2        22        28        25       149        30        29        27       152       154       163
 -1        51    6    0    1
 -2         1         2        19        54         4        21        20        68       151        69
 -1        52    6    0    1
 -2        58        19        40        54        70       150        59        60        69        57
 -1        53    6    0    1
 -2        28        25       149        31        29       163       154        33        32       164
 -1        54    6    0    1
 -2        62        48        34        11        65        51       161        67        66       160
 -1        55    6    0    1
 -2       149        48        34        62       155        51       156       159        65       161
 -1        56    6    0    1
 -2        34        11        10        31       160        13        38        35        74        37
 -1        57    6    0    1
 -2        10        11        34        12        13       160        38        15        14        39
 -1        58    6    0    1
 -2        58        25        62       149        71        72        64       157       163       159
 -1        59    6    0    1
 -2        19        25        58       149        26        71        70       162       163       157
 -1        60    6    0    1
 -2        22        19       149        25        23       162       152        27        26       163
 -1        61    6    0    1
 -2        25        62       149        31        72       159       163        32        73       164
 -1        62    6    0    1
 -2        28        48       149        44        49       155       154        47        50       153
 -1        63    6    0    1
 -2        28        34        31       149        36        35        33       154       156       164
 -1        64    6    0    1
 -2        34        62        31       149       161        73        35       156       159       164
 -1        65    6    0    1
 -2        22       149        40        44       152       158        43        45       153        46
 -1        66    6    0    1
 -2        44        62       149        58        63       159       153        61        64       157
 -1        67    6    0    1
 -2       149        58        19        40       157        70       162       158        59       150
 -3
    1PSTEP                         1           1           1          
  100CL  101 1.000000000          90                     0    1           1
 -4  DISP        4    1
 -5  D1          1    2    1    0
 -5  D2          1    2    2    0
 -5  D3          1    2    3    0
 -5  ALL         1    2    0    0    1ALL
 -1         1 0.00000E+00 0.00000E+00 0.00000E+00
 -1         2 1.42857E-04-1.81875E-17 0.00000E+00
 -1         3 0.00000E+00-1.42857E-04 0.00000E+00
 -1         4 7.14286E-05-1.63018E-17 0.00000E+00
 -1         5 7.14286E-05-7.14286E-05 0.00000E+00
 -1         6-1.27589E-17-7.14286E-05 0.00000E+00
 -1         7 1.42857E-04-1.42857E-04 0.00000E+00
 -1         8 1.42857E-04-7.14286E-05 0.00000E+00
 -1         9 7.14286E-05-1.42857E-04 0.00000E+00
 -1        10-2.93653E-15-3.50403E-15 3.80952E-03
 -1        11-2.93407E-15-1.42857E-04 3.80952E-03
 -1        12 1.42857E-04-3.49857E-15 3.80952E-03
 -1        13-2.93528E-15-7.14286E-05 3.80952E-03
 -1        14 7.14286E-05-7.14286E-05 3.80952E-03
 -1        15 7.14286E-05-3.50121E-15 3.80952E-03
 -1        16 1.42857E-04-1.42857E-04 3.80952E-03
 -1        17 7.14286E-05-1.42857E-04 3.80952E-03
 -1        18 1.42857E-04-7.14286E-05 3.80952E-03
 -1        19-3.16160E-16-3.14134E-16 9.52381E-04
 -1        20-8.64787E-17-8.67599E-17 4.76190E-04
 -1        21 7.14286E-05-9.67650E-17 4.76190E-04
 -1        22 1.42857E-04-3.13269E-16 9.52381E-04
 -1        23 7.14286E-05-3.18457E-16 9.52381E-04
 -1        24 1.42857E-04-9.33069E-17 4.76190E-04
 -1        25-1.06653E-15-1.13994E-15 1.90476E-03
 -1        26-6.51680E-16-6.72494E-16 1.42857E-03
 -1        27 7.14286E-05-6.74750E-16 1.42857E-03
 -1        28 1.42857E-04-1.12902E-15 1.90476E-03
 -1        29 7.14286E-05-1.13777E-15 1.90476E-03
 -1        30 1.42857E-04-6.68140E-16 1.42857E-03
 -1        31-1.98935E-15-2.26602E-15 2.85714E-03
 -1        32-1.51813E-15-1.67974E-15 2.38095E-03
 -1        33 7.14286E-05-1.67553E-15 2.38095E-03
 -1        34 1.42857E-04-2.25412E-15 2.85714E-03
 -1        35 7.14286E-05-2.26136E-15 2.85714E-03
 -1        36 1.42857E-04-1.66761E-15 2.38095E-03
 -1        37-2.46336E-15-2.87994E-15 3.33333E-03
 -1        38 7.14286E-05-2.87645E-15 3.33333E-03
 -1        39 1.42857E-04-2.87239E-15 3.33333E-03
 -1        40 1.42857E-04-1.42857E-04 9.52381E-04
 -1        41 1.42857E-04-7.14286E-05 4.76190E-04
 -1        42 1.42857E-04-1.42857E-04 4.76190E-04
 -1        43 1.42857E-04-7.14286E-05 9.52381E-04
 -1        44 1.42857E-04-1.42857E-04 1.90476E-03
 -1        45 1.42857E-04-7.14286E-05 1.42857E-03
 -1        46 1.42857E-04-1.42857E-04 1.42857E-03
 -1        47 1.42857E-04-7.14286E-05 1.90476E-03
 -1        48 1.42857E-04-1.42857E-04 2.85714E-03
 -1        49 1.42857E-04-7.14286E-05 2.38095E-03
 -1        50 1.42857E-04-1.42857E-04 2.38095E-03
 -1        51 1.42857E-04-7.14286E-05 2.85714E-03
 -1        52 1.42857E-04-7.14286E-05 3.33333E-03
 -1        53 1.42857E-04-1.42857E-04 3.33333E-03
 -1        54-3.20579E-16-1.42857E-04 9.52381E-04
 -1        55 7.14286E-05-1.42857E-04 4.76190E-04
 -1        56-9.12964E-17-1.42857E-04 4.76190E-04
 -1        57 7.14286E-05-1.42857E-04 9.52381E-04
 -1        58-9.77301E-16-1.42857E-04 1.80952E-03
 -1        59 7.14286E-05-1.42857E-04 1.42857E-03
 -1        60-6.47809E-16-1.42857E-04 1.42857E-03
 -1        61 7.14286E-05-1.42857E-04 1.90476E-03
 -1        62-1.98190E-15-1.42857E-04 2.85714E-03
 -1        63 7.14286E-05-1.42857E-04 2.38095E-03
 -1        64-1.50991E-15-1.42857E-04 2.38095E-03
 -1        65 7.14286E-05-1.42857E-04 2.85714E-03
 -1        66 7.14286E-05-1.42857E-04 3.33333E-03
 -1        67-2.45791E-15-1.42857E-04 3.33333E-03
 -1        68-9.63652E-17-7.14286E-05 4.76190E-04
 -1        69-3.22496E-16-7.14286E-05 9.52381E-04
 -1        70-6.51660E-16-7.14286E-05 1.42857E-03
 -1        71-1.06507E-15-7.14286E-05 1.90476E-03
 -1        72-1.51470E-15-7.14286E-05 2.38095E-03
 -1        73-1.98583E-15-7.14286E-05 2.85714E-03
 -1        74-2.46062E-15-7.14286E-05 3.33333E-03
 -1       149 7.14470E-05-7.14101E-05 1.90470E-03
 -1       150 7.14286E-05-7.14286E-05 9.52381E-04
 -1       151 7.14286E-05-7.14286E-05 4.76190E-04
 -1       152 1.07152E-04-3.57050E-05 1.42854E-03
 -1       153 1.07152E-04-1.07134E-04 1.90473E-03
 -1       154 1.07152E-04-3.57050E-05 1.90473E-03
 -1       155 1.07152E-04-1.07134E-04 2.38092E-03
 -1       156 1.07152E-04-3.57050E-05 2.38092E-03
 -1       157 3.57236E-05-1.07134E-04 1.90473E-03
 -1       158 1.07152E-04-1.07134E-04 1.42854E-03
 -1       159 3.57236E-05-1.07134E-04 2.38092E-03
 -1       160 7.14286E-05-7.14286E-05 3.33333E-03
 -1       161 7.14286E-05-7.14286E-05 2.85714E-03
 -1       162 3.57236E-05-3.57050E-05 1.42854E-03
 -1       163 3.57236E-05-3.57050E-05 1.90473E-03
 -1       164 3.57236E-05-3.57050E-05 2.38092E-03
 -3
    1PSTEP                         2           1           1          
  100CL  101 1.000000000          90                     0    1           1
 -4  STRESS      6    1
 -5  SXX         1    4    1    1
 -5  SYY         1    4    2    2
 -5  SZZ         1    4    3    3
 -5  SXY         1    4    1    2
 -5  SYZ         1    4    2    3
 -5  SZX         1    4    3    1
 -1         1 1.18841E-12-2.23905E-12 9.99990E+01 3.16545E-13-5.92938E-13-8.89704E-13
 -1         2-3.65255E-13 2.83997E-13 9.99990E+01-9.57262E-14-2.29816E-13-1.54239E-13
 -1         3 2.62231E-12-2.40300E-13 9.99990E+01 1.44515E-12 4.73105E-14-1.80371E-12
 -1         4 6.20408E-13-6.93916E-13 9.99990E+01 1.92114E-14-5.02986E-13-8.36197E-13
 -1         5 7.39558E-13 3.07844E-13 9.99990E+01 5.50775E-13-2.70580E-13-1.14180E-12
 -1         6 3.49493E-13-2.67330E-12 9.99990E+01 8.59619E-13-2.80324E-13-1.18777E-12
 -1         7 4.39434E-13-6.30962E-14 9.99990E+01 3.36726E-13-2.39080E-13-5.53441E-13
 -1         8-4.58251E-13 4.81214E-14 9.99990E+01 8.43111E-14-3.33927E-13-2.92306E-13
 -1         9 2.82172E-12 3.73496E-13 9.99990E+01 5.33699E-13-6.56343E-14-1.49330E-12
 -1        10 2.43308E-13 9.06656E-14 9.99990E+01-1.13419E-13-2.82911E-14 4.05346E-13
 -1        11-3.30721E-13-5.18518E-13 9.99990E+01-9.13082E-14 2.66641E-13-1.37577E-13
 -1        12 3.46950E-13-2.96141E-13 9.99990E+01 2.32293E-13-4.74368E-13 4.94026E-13
 -1        13 4.98435E-15-2.70792E-13 9.99990E+01-1.21869E-13-2.20032E-13 1.95405E-13
 -1        14 1.72180E-13-3.51750E-13 9.99990E+01-6.08148E-14-5.13145E-13 2.63639E-13
 -1        15 3.21440E-13 1.79728E-13 9.99990E+01-7.77405E-14 3.50573E-14-1.20396E-14
 -1        16 1.80001E-13-5.05630E-14 9.99990E+01-1.04761E-13 5.54294E-14-4.81369E-13
 -1        17 2.11184E-14-2.49166E-13 9.99990E+01-2.17660E-13 1.83626E-13-4.25838E-13
 -1        18 9.44159E-14-5.09855E-13 9.99990E+01 1.59267E-13-2.77790E-13 3.31469E-13
 -1        19-1.78427E-13-2.78933E-14 9.99990E+01-6.76787E-14-5.11402E-13-8.25839E-13
 -1        20 1.25675E-12 7.79613E-14 9.99990E+01 5.17083E-13-4.28257E-13-8.41820E-13
 -1        21 2.07888E-13 1.40066E-13 9.99990E+01 6.66697E-14-1.77635E-13-6.20727E-13
 -1        22 4.61732E-13 3.05584E-13 9.99990E+01 1.27288E-13 2.70692E-13-9.58365E-14
 -1        23 4.65624E-14-2.07071E-14 9.99990E+01-1.16731E-14-5.40720E-13-1.09258E-12
 -1        24-6.83493E-13-9.38346E-13 9.99990E+01 2.92939E-13 2.12846E-13-5.13057E-14
 -1        25 2.57892E-13 6.68582E-14 9.99990E+01 3.99360E-13-5.61966E-13-5.49771E-13
 -1        26-2.29490E-13 1.75104E-13 9.99990E+01 3.80823E-13-3.68054E-13-6.03658E-13
 -1        27 5.00626E-13 2.74021E-13 9.99990E+01 3.10766E-13 1.44940E-13-6.36240E-13
 -1        28-7.06057E-14 1.05572E-13 9.99990E+01-8.13804E-15-4.09860E-13-2.49292E-13
 -1        29-2.84890E-13-6.55884E-14 9.99990E+01-1.03979E-13-6.69865E-13-9.47121E-13
 -1        30-5.27941E-13-6.48460E-13 9.99990E+01 1.88659E-13 3.82333E-13 2.59564E-13
 -1        31-2.43447E-13-1.24713E-13 9.99990E+01-2.47932E-14 3.63186E-13-6.45760E-14
 -1        32-1.26711E-13-4.20210E-13 9.99990E+01 1.46263E-13-6.19241E-14-2.34611E-13
 -1        33 2.35487E-13 3.16298E-13 9.99990E+01-1.25313E-13 6.08056E-13-1.83905E-13
 -1        34-2.74299E-14-1.62290E-14 9.99990E+01-5.73866E-14-6.26976E-13-1.08102E-14
 -1        35-6.34915E-14-1.07261E-14 9.99990E+01-6.30980E-14 6.63495E-14-1.28816E-13
 -1        36-5.07257E-14-1.62387E-13 9.99990E+01 3.18204E-13-5.23177E-13 1.75839E-14
 -1        37 9.36784E-14-3.81178E-14 9.99990E+01 8.87905E-14-8.95819E-14 3.59827E-13
 -1        38 2.15503E-13 6.68333E-14 9.99990E+01-1.46798E-13-1.56314E-13 1.98165E-13
 -1        39-1.57501E-13 5.73515E-15 9.99990E+01 1.17707E-13-3.73550E-13 4.85509E-14
 -1        40-1.35531E-13-1.37415E-13 9.99990E+01-1.34974E-13-3.37046E-13-8.55375E-13
 -1        41-1.46324E-13-6.04277E-14 9.99990E+01-4.70725E-14-1.59031E-13-3.30295E-13
 -1        42-5.21526E-14-1.58092E-13 9.99990E+01 3.84520E-13-2.55570E-13-5.92950E-13
 -1        43-6.89808E-14 2.15626E-13 9.99990E+01-2.63237E-14-4.40279E-13-7.58646E-13
 -1        44 8.60970E-14 2.83656E-13 9.99990E+01 3.40607E-13-6.03750E-13-9.17238E-13
 -1        45 1.26364E-13 1.59916E-13 9.99990E+01 1.90852E-13-4.58427E-13-2.65822E-13
 -1        46 3.50281E-13-1.64815E-13 9.99990E+01 2.82003E-13-3.99291E-13-6.97524E-13
 -1        47-2.17798E-13-1.46448E-13 9.99990E+01-7.54106E-14-1.10272E-12-6.43891E-13
 -1        48-3.52753E-13 5.97910E-14 9.99990E+01-5.47395E-14-7.55196E-14 1.75888E-14
 -1        49 1.95828E-13 4.22470E-13 9.99990E+01-1.81676E-13-2.38968E-13 3.01623E-13
 -1        50-4.98567E-13-8.88519E-14 9.99990E+01-5.99523E-15-5.36566E-14-6.05244E-13
 -1        51 1.19346E-13 1.04322E-13 9.99990E+01-5.47611E-14-7.82276E-13 3.29844E-13
 -1        52-1.61596E-13 4.14168E-13 9.99990E+01-1.08433E-13-3.05295E-13-4.65612E-13
 -1        53 5.03909E-13 3.45176E-13 9.99990E+01 1.37265E-13-3.90932E-13-9.11801E-14
 -1        54-3.72126E-13 1.57681E-14 9.99990E+01-2.94039E-13-3.10936E-13-2.65978E-13
 -1        55 3.95742E-13-1.42537E-13 9.99990E+01 1.79158E-13-1.59684E-13-5.39826E-13
 -1        56 1.04143E-12-3.77249E-14 9.99990E+01 5.67694E-13-5.99278E-14-7.68812E-13
 -1        57-3.03127E-14-6.72783E-14 9.99990E+01-2.88016E-14-4.66092E-13-1.13597E-12
 -1        58-5.03075E-13-6.56834E-13 9.99990E+01-5.53926E-13-1.80894E-13-2.65221E-13
 -1        59 1.14868E-12 1.41906E-12 9.99990E+01 4.78613E-13-1.01267E-13-5.43749E-13
 -1        60-1.04248E-12-9.50954E-13 9.99990E+01 6.59842E-13 2.20857E-13-5.54396E-14
 -1        61-1.29595E-12-5.74567E-13 9.99990E+01-6.61159E-13 1.21831E-13-5.07179E-13
 -1        62 4.80245E-13 6.81093E-13 9.99990E+01 4.12478E-13-4.06296E-14-1.16100E-13
 -1        63 1.07513E-12 1.17415E-12 9.99990E+01 6.10237E-13 4.59868E-13-3.53445E-13
 -1        64-1.88780E-12-2.64316E-12 9.99990E+01-8.02149E-13 6.43926E-13 3.40921E-13
 -1        65-2.46688E-13-4.37537E-15 9.99990E+01 5.74006E-14-6.42667E-14-3.69470E-13
 -1        66-1.92718E-13-1.06973E-13 9.99990E+01 1.35025E-13 4.70952E-13-1.92801E-13
 -1        67-8.31579E-13-6.66195E-13 9.99990E+01 1.28516E-13 2.32426E-13 8.50694E-14
 -1        68 1.55677E-13-7.89245E-13 9.99990E+01-2.51728E-13-4.14870E-13-1.48204E-13
 -1        69-3.77831E-13-3.89067E-14 9.99990E+01-2.79456E-13-4.93263E-13-5.87067E-13
 -1        70 1.20801E-12 1.33651E-12 9.99990E+01 5.83814E-13-4.36891E-13-3.27285E-13
 -1        71-4.46289E-13-1.50024E-12 9.99990E+01-7.91508E-13-7.49550E-13-2.88394E-13
 -1        72 9.50431E-13 1.03244E-12 9.99990E+01 6.25816E-13-1.07616E-13 2.03370E-13
 -1        73-3.36162E-13 1.50872E-13 9.99990E+01 4.76487E-14-3.77394E-13-1.77147E-13
 -1        74-8.98268E-14-4.42349E-14 9.99990E+01 6.49595E-14-7.42120E-14 2.23163E-13
 -1       149-1.87623E-13-1.63487E-13 9.99990E+01-7.92886E-14-7.34715E-13-4.82944E-13
 -1       150-3.64008E-13-2.28770E-13 9.99990E+01-2.40772E-13-4.41096E-13-9.62660E-13
 -1       151-2.31699E-13 4.14071E-13 9.99990E+01-2.76450E-13-2.93259E-13-2.30920E-13
 -1       152 3.28525E-13 1.92118E-13 9.99990E+01 6.04458E-14-1.54867E-13-2.31368E-13
 -1       153-5.82211E-14 5.19529E-14 9.99990E+01 1.63610E-13-9.69183E-13-5.55273E-13
 -1       154-6.53096E-14 1.10868E-13 9.99990E+01-2.74134E-14-7.41467E-13-6.17003E-13
 -1       155-4.36742E-13-7.33041E-14 9.99990E+01-1.24583E-13-2.01819E-13-2.97528E-13
 -1       156-4.22514E-13-5.61659E-13 9.99990E+01-1.04997E-14-5.36362E-13-5.92570E-14
 -1       157-5.93796E-13-6.10720E-13 9.99990E+01-5.28683E-13-7.56161E-13-6.24570E-13
 -1       158-5.38213E-13-7.06741E-13 9.99990E+01-2.15754E-13-5.55827E-13-3.93559E-13
 -1       159 7.10972E-13 8.41552E-13 9.99990E+01 2.44663E-13-2.00310E-13-1.02989E-13
 -1       160 4.26526E-14 8.65590E-14 9.99990E+01-1.08793E-13-1.58155E-13-1.39340E-13
 -1       161 4.30383E-14-6.88018E-14 9.99990E+01-6.97269E-15-6.48820E-13-5.04210E-14
 -1       162-6.39425E-13-6.75803E-13 9.99990E+01-1.23083E-13-4.47974E-13-6.89936E-13
 -1       163 1.13574E-13 6.68582E-14 9.99990E+01 1.87790E-13-4.68292E-13-6.91404E-13
 -1       164-7.00172E-14-1.15301E-13 9.99990E+01-1.13098E-13-3.72308E-14-1.51711E-13
 -3
    1PSTEP                         3           1           1          
  100CL  101 1.000000000          90                     0    1           1
 -4  ERROR       1    1
 -5  STR(%)      1    1    0    0
 -1         1 8.27072E-12
 -1         2 8.72262E-12
 -1         3 8.72262E-12
 -1         4 8.49667E-12
 -1         5 8.72262E-12
 -1         6 8.49667E-12
 -1         7 8.72262E-12
 -1         8 8.72262E-12
 -1         9 8.72262E-12
 -1        10 5.45697E-13
 -1        11 5.71276E-13
 -1        12 5.71276E-13
 -1        13 5.58487E-13
 -1        14 5.71276E-13
 -1        15 5.58487E-13
 -1        16 5.71276E-13
 -1        17 5.71276E-13
 -1        18 5.71276E-13
 -1        19 8.62883E-12
 -1        20 8.44977E-12
 -1        21 8.67573E-12
 -1        22 4.65121E-12
 -1        23 6.64002E-12
 -1        24 6.68692E-12
 -1        25 3.14628E-12
 -1        26 5.88756E-12
 -1        27 3.89875E-12
 -1        28 3.47029E-12
 -1        29 3.30829E-12
 -1        30 4.06075E-12
 -1        31 1.89289E-12
 -1        32 2.51958E-12
 -1        33 2.68159E-12
 -1        34 1.89289E-12
 -1        35 1.89289E-12
 -1        36 2.68159E-12
 -1        37 1.21929E-12
 -1        38 1.21929E-12
 -1        39 1.23208E-12
 -1        40 8.62883E-12
 -1        41 8.67573E-12
 -1        42 8.67573E-12
 -1        43 6.64002E-12
 -1        44 3.47029E-12
 -1        45 4.06075E-12
 -1        46 6.04956E-12
 -1        47 3.47029E-12
 -1        48 1.80762E-12
 -1        49 2.63896E-12
 -1        50 2.63896E-12
 -1        51 1.85025E-12
 -1        52 1.23208E-12
 -1        53 1.18945E-12
 -1        54 8.72262E-12
 -1        55 8.72262E-12
 -1        56 8.72262E-12
 -1        57 8.67573E-12
 -1        58 3.16334E-12
 -1        59 5.89608E-12
 -1        60 5.94298E-12
 -1        61 3.31681E-12
 -1        62 1.89289E-12
 -1        63 2.68159E-12
 -1        64 2.52811E-12
 -1        65 1.85025E-12
 -1        66 1.18945E-12
 -1        67 1.23208E-12
 -1        68 8.49667E-12
 -1        69 8.67573E-12
 -1        70 5.89608E-12
 -1        71 3.15481E-12
 -1        72 2.51958E-12
 -1        73 1.89289E-12
 -1        74 1.23208E-12
 -1       149 3.47029E-12
 -1       150 8.62883E-12
 -1       151 8.72262E-12
 -1       152 4.06075E-12
 -1       153 3.47029E-12
 -1       154 3.47029E-12
 -1       155 2.63896E-12
 -1       156 2.68159E-12
 -1       157 3.31681E-12
 -1       158 6.04956E-12
 -1       159 2.68159E-12
 -1       160 1.23208E-12
 -1       161 1.89289E-12
 -1       162 6.04956E-12
 -1       163 3.30829E-12
 -1       164 2.68159E-12
 -3
 9999
