    1C
    1UUSER                                                              
    1UDATE              02.september.2024                               
    1UTIME              14:28:05                                        
    1UHOST                                                              
    1UPGM               CalculiX                                        
    1UVERSION           Version 2.20                             
    1UCOMPILETIME       Sun Jul 31 18:08:37 CEST 2022                    
    1UDIR                                                               
    1UDBN                                                               
    1UMAT    1EL                                                        
    2C                          2353                                     1
 -1         1-5.00000E+01 0.00000E+00 0.00000E+00
 -1         2-5.00000E+01 0.00000E+00 3.00000E+02
 -1         3 5.00072E+01 1.25795E-01 3.00000E+02
 -1         4 5.00072E+01 1.25795E-01 0.00000E+00
 -1         5 4.99928E+01-1.25795E-01 3.00000E+02
 -1         6 4.99928E+01-1.25795E-01 0.00000E+00
 -1         7-5.00000E+01 0.00000E+00 1.00000E+01
 -1         8-5.00000E+01 0.00000E+00 2.00000E+01
 -1         9-5.00000E+01 0.00000E+00 3.00000E+01
 -1        10-5.00000E+01 0.00000E+00 4.00000E+01
 -1        11-5.00000E+01 0.00000E+00 5.00000E+01
 -1        12-5.00000E+01 0.00000E+00 6.00000E+01
 -1        13-5.00000E+01 0.00000E+00 7.00000E+01
 -1        14-5.00000E+01 0.00000E+00 8.00000E+01
 -1        15-5.00000E+01 0.00000E+00 9.00000E+01
 -1        16-5.00000E+01 0.00000E+00 1.00000E+02
 -1        17-5.00000E+01 0.00000E+00 1.10000E+02
 -1        18-5.00000E+01 0.00000E+00 1.20000E+02
 -1        19-5.00000E+01 0.00000E+00 1.30000E+02
 -1        20-5.00000E+01 0.00000E+00 1.40000E+02
 -1        21-5.00000E+01 0.00000E+00 1.50000E+02
 -1        22-5.00000E+01 0.00000E+00 1.60000E+02
 -1        23-5.00000E+01 0.00000E+00 1.70000E+02
 -1        24-5.00000E+01 0.00000E+00 1.80000E+02
 -1        25-5.00000E+01 0.00000E+00 1.90000E+02
 -1        26-5.00000E+01 0.00000E+00 2.00000E+02
 -1        27-5.00000E+01 0.00000E+00 2.10000E+02
 -1        28-5.00000E+01 0.00000E+00 2.20000E+02
 -1        29-5.00000E+01 0.00000E+00 2.30000E+02
 -1        30-5.00000E+01 0.00000E+00 2.40000E+02
 -1        31-5.00000E+01 0.00000E+00 2.50000E+02
 -1        32-5.00000E+01 0.00000E+00 2.60000E+02
 -1        33-5.00000E+01 0.00000E+00 2.70000E+02
 -1        34-5.00000E+01 0.00000E+00 2.80000E+02
 -1        35-5.00000E+01 0.00000E+00 2.90000E+02
 -1        36-5.00000E+01 0.00000E+00 5.00000E+00
 -1        37-5.00000E+01 0.00000E+00 1.50000E+01
 -1        38-5.00000E+01 0.00000E+00 2.50000E+01
 -1        39-5.00000E+01 0.00000E+00 3.50000E+01
 -1        40-5.00000E+01 0.00000E+00 4.50000E+01
 -1        41-5.00000E+01 0.00000E+00 5.50000E+01
 -1        42-5.00000E+01 0.00000E+00 6.50000E+01
 -1        43-5.00000E+01 0.00000E+00 7.50000E+01
 -1        44-5.00000E+01 0.00000E+00 8.50000E+01
 -1        45-5.00000E+01 0.00000E+00 9.50000E+01
 -1        46-5.00000E+01 0.00000E+00 1.05000E+02
 -1        47-5.00000E+01 0.00000E+00 1.15000E+02
 -1        48-5.00000E+01 0.00000E+00 1.25000E+02
 -1        49-5.00000E+01 0.00000E+00 1.35000E+02
 -1        50-5.00000E+01 0.00000E+00 1.45000E+02
 -1        51-5.00000E+01 0.00000E+00 1.55000E+02
 -1        52-5.00000E+01 0.00000E+00 1.65000E+02
 -1        53-5.00000E+01 0.00000E+00 1.75000E+02
 -1        54-5.00000E+01 0.00000E+00 1.85000E+02
 -1        55-5.00000E+01 0.00000E+00 1.95000E+02
 -1        56-5.00000E+01 0.00000E+00 2.05000E+02
 -1        57-5.00000E+01 0.00000E+00 2.15000E+02
 -1        58-5.00000E+01 0.00000E+00 2.25000E+02
 -1        59-5.00000E+01 0.00000E+00 2.35000E+02
 -1        60-5.00000E+01 0.00000E+00 2.45000E+02
 -1        61-5.00000E+01 0.00000E+00 2.55000E+02
 -1        62-5.00000E+01 0.00000E+00 2.65000E+02
 -1        63-5.00000E+01 0.00000E+00 2.75000E+02
 -1        64-5.00000E+01 0.00000E+00 2.85000E+02
 -1        65-5.00000E+01 0.00000E+00 2.95000E+02
 -1        66-4.18217E+01 5.39014E+00 3.00000E+02
 -1        67-2.81824E+01 7.69467E+00 3.00000E+02
 -1        68-9.32653E+00 7.73292E+00 3.00000E+02
 -1        69 1.05638E+01 6.14624E+00 3.00000E+02
 -1        70 3.03508E+01 3.56342E+00 3.00000E+02
 -1        71-4.66515E+01 3.56599E+00 3.00000E+02
 -1        72-3.50606E+01 6.88194E+00 3.00000E+02
 -1        73-1.87562E+01 7.99758E+00 3.00000E+02
 -1        74 6.30272E-01 7.08652E+00 3.00000E+02
 -1        75 2.04714E+01 4.96302E+00 3.00000E+02
 -1        76 4.01982E+01 1.95438E+00 3.00000E+02
 -1        77 5.00072E+01 1.25795E-01 2.00000E+01
 -1        78 5.00072E+01 1.25795E-01 4.00000E+01
 -1        79 5.00072E+01 1.25795E-01 6.00000E+01
 -1        80 5.00072E+01 1.25795E-01 8.00000E+01
 -1        81 5.00072E+01 1.25795E-01 1.00000E+02
 -1        82 5.00072E+01 1.25795E-01 1.20000E+02
 -1        83 5.00072E+01 1.25795E-01 1.40000E+02
 -1        84 5.00072E+01 1.25795E-01 1.60000E+02
 -1        85 5.00072E+01 1.25795E-01 1.80000E+02
 -1        86 5.00072E+01 1.25795E-01 2.00000E+02
 -1        87 5.00072E+01 1.25795E-01 2.20000E+02
 -1        88 5.00072E+01 1.25795E-01 2.40000E+02
 -1        89 5.00072E+01 1.25795E-01 2.60000E+02
 -1        90 5.00072E+01 1.25795E-01 2.80000E+02
 -1        91 5.00072E+01 1.25795E-01 1.00000E+01
 -1        92 5.00072E+01 1.25795E-01 3.00000E+01
 -1        93 5.00072E+01 1.25795E-01 5.00000E+01
 -1        94 5.00072E+01 1.25795E-01 7.00000E+01
 -1        95 5.00072E+01 1.25795E-01 9.00000E+01
 -1        96 5.00072E+01 1.25795E-01 1.10000E+02
 -1        97 5.00072E+01 1.25795E-01 1.30000E+02
 -1        98 5.00072E+01 1.25795E-01 1.50000E+02
 -1        99 5.00072E+01 1.25795E-01 1.70000E+02
 -1       100 5.00072E+01 1.25795E-01 1.90000E+02
 -1       101 5.00072E+01 1.25795E-01 2.10000E+02
 -1       102 5.00072E+01 1.25795E-01 2.30000E+02
 -1       103 5.00072E+01 1.25795E-01 2.50000E+02
 -1       104 5.00072E+01 1.25795E-01 2.70000E+02
 -1       105 5.00072E+01 1.25795E-01 2.90000E+02
 -1       106-4.18217E+01 5.39014E+00 0.00000E+00
 -1       107-2.81824E+01 7.69467E+00 0.00000E+00
 -1       108-9.32653E+00 7.73292E+00 0.00000E+00
 -1       109 1.05638E+01 6.14624E+00 0.00000E+00
 -1       110 3.03508E+01 3.56342E+00 0.00000E+00
 -1       111-4.66515E+01 3.56599E+00 0.00000E+00
 -1       112-3.50606E+01 6.88194E+00 0.00000E+00
 -1       113-1.87562E+01 7.99758E+00 0.00000E+00
 -1       114 6.30272E-01 7.08652E+00 0.00000E+00
 -1       115 2.04714E+01 4.96302E+00 0.00000E+00
 -1       116 4.01982E+01 1.95438E+00 0.00000E+00
 -1       117 5.00000E+01-1.22152E-13 3.00000E+02
 -1       118 4.99928E+01-1.25795E-01 2.00000E+01
 -1       119 4.99928E+01-1.25795E-01 4.00000E+01
 -1       120 4.99928E+01-1.25795E-01 6.00000E+01
 -1       121 4.99928E+01-1.25795E-01 8.00000E+01
 -1       122 4.99928E+01-1.25795E-01 1.00000E+02
 -1       123 4.99928E+01-1.25795E-01 1.20000E+02
 -1       124 4.99928E+01-1.25795E-01 1.40000E+02
 -1       125 4.99928E+01-1.25795E-01 1.60000E+02
 -1       126 4.99928E+01-1.25795E-01 1.80000E+02
 -1       127 4.99928E+01-1.25795E-01 2.00000E+02
 -1       128 4.99928E+01-1.25795E-01 2.20000E+02
 -1       129 4.99928E+01-1.25795E-01 2.40000E+02
 -1       130 4.99928E+01-1.25795E-01 2.60000E+02
 -1       131 4.99928E+01-1.25795E-01 2.80000E+02
 -1       132 4.99928E+01-1.25795E-01 1.00000E+01
 -1       133 4.99928E+01-1.25795E-01 3.00000E+01
 -1       134 4.99928E+01-1.25795E-01 5.00000E+01
 -1       135 4.99928E+01-1.25795E-01 7.00000E+01
 -1       136 4.99928E+01-1.25795E-01 9.00000E+01
 -1       137 4.99928E+01-1.25795E-01 1.10000E+02
 -1       138 4.99928E+01-1.25795E-01 1.30000E+02
 -1       139 4.99928E+01-1.25795E-01 1.50000E+02
 -1       140 4.99928E+01-1.25795E-01 1.70000E+02
 -1       141 4.99928E+01-1.25795E-01 1.90000E+02
 -1       142 4.99928E+01-1.25795E-01 2.10000E+02
 -1       143 4.99928E+01-1.25795E-01 2.30000E+02
 -1       144 4.99928E+01-1.25795E-01 2.50000E+02
 -1       145 4.99928E+01-1.25795E-01 2.70000E+02
 -1       146 4.99928E+01-1.25795E-01 2.90000E+02
 -1       147 5.00000E+01-1.22152E-13 0.00000E+00
 -1       148-4.08907E+01-3.43528E+00 0.00000E+00
 -1       149-2.71930E+01-3.98227E+00 0.00000E+00
 -1       150-8.64285E+00-3.80037E+00 0.00000E+00
 -1       151 1.09196E+01-2.86927E+00 0.00000E+00
 -1       152 3.04635E+01-1.60146E+00 0.00000E+00
 -1       153-4.59301E+01-2.63676E+00 0.00000E+00
 -1       154-3.40482E+01-3.85436E+00 0.00000E+00
 -1       155-1.79168E+01-3.99374E+00 0.00000E+00
 -1       156 1.14132E+00-3.39786E+00 0.00000E+00
 -1       157 2.06933E+01-2.26227E+00 0.00000E+00
 -1       158 4.02304E+01-8.92733E-01 0.00000E+00
 -1       159-4.08907E+01-3.43528E+00 3.00000E+02
 -1       160-2.71930E+01-3.98227E+00 3.00000E+02
 -1       161-8.64285E+00-3.80037E+00 3.00000E+02
 -1       162 1.09196E+01-2.86927E+00 3.00000E+02
 -1       163 3.04635E+01-1.60146E+00 3.00000E+02
 -1       164-4.59301E+01-2.63676E+00 3.00000E+02
 -1       165-3.40482E+01-3.85436E+00 3.00000E+02
 -1       166-1.79168E+01-3.99374E+00 3.00000E+02
 -1       167 1.14132E+00-3.39786E+00 3.00000E+02
 -1       168 2.06933E+01-2.26227E+00 3.00000E+02
 -1       169 4.02304E+01-8.92733E-01 3.00000E+02
 -1       170-3.95490E+01 5.99019E+00 2.21089E+02
 -1       171-4.32695E+01 4.93866E+00 2.29624E+02
 -1       172-2.10991E+01 7.99660E+00 4.51240E+01
 -1       173-9.56601E+00 7.74422E+00 4.44661E+01
 -1       174-1.80383E+01 7.99163E+00 5.34905E+01
 -1       175-3.35439E+00 7.38450E+00 5.64280E+01
 -1       176-3.04926E+01 7.48533E+00 2.54235E+02
 -1       177-2.35145E+01 7.94740E+00 2.63286E+02
 -1       178-3.51006E+01 6.87542E+00 2.63025E+02
 -1       179-2.75358E+01 7.74284E+00 2.43261E+02
 -1       180-1.44169E+01 7.92401E+00 2.52145E+02
 -1       181-6.81076E+00 7.60140E+00 2.19772E+02
 -1       182 1.08839E+01 6.11166E+00 2.18963E+02
 -1       183 6.71694E+00 6.54167E+00 2.33398E+02
 -1       184 5.26454E+00 6.68097E+00 4.47433E+01
 -1       185-3.72996E-01 7.16614E+00 2.80948E+01
 -1       186-6.92614E+00 7.60793E+00 1.95089E+02
 -1       187 1.23336E+01 5.95187E+00 1.95373E+02
 -1       188 4.37039E-01 7.10209E+00 2.07919E+02
 -1       189-1.77887E+01 7.98897E+00 3.20863E+01
 -1       190 4.24919E+00 6.77497E+00 1.43833E+02
 -1       191 4.37293E-01 7.10207E+00 1.27920E+02
 -1       192 1.44451E+01 5.71008E+00 1.35943E+02
 -1       193-8.31255E+00 7.68270E+00 1.38671E+02
 -1       194-6.92614E+00 7.60793E+00 1.55089E+02
 -1       195 1.23337E+01 5.95187E+00 1.55373E+02
 -1       196 4.37293E-01 7.10207E+00 1.67920E+02
 -1       197 4.24919E+00 6.77497E+00 1.83833E+02
 -1       198 1.44451E+01 5.71008E+00 1.75943E+02
 -1       199-8.31255E+00 7.68270E+00 1.78671E+02
 -1       200 2.04506E+01 4.96574E+00 4.42717E+01
 -1       201 2.81735E+01 3.89021E+00 5.89590E+01
 -1       202 1.28550E+01 5.89316E+00 5.55032E+01
 -1       203-6.92614E+00 7.60793E+00 1.15089E+02
 -1       204 1.16464E+01 6.02825E+00 1.17216E+02
 -1       205 3.65191E+01 2.58101E+00 4.58473E+01
 -1       206-5.10037E+00 7.49911E+00 9.93232E+01
 -1       207 1.16464E+01 6.02825E+00 9.72164E+01
 -1       208 3.79991E+00 6.81566E+00 1.06649E+02
 -1       209-4.69854E+00 7.47363E+00 7.72228E+01
 -1       210 1.16464E+01 6.02825E+00 7.72164E+01
 -1       211 3.44180E+00 6.84770E+00 8.67342E+01
 -1       212 1.88878E+01 5.16734E+00 2.42533E+02
 -1       213 1.98853E+01 5.03928E+00 2.29593E+02
 -1       214 3.79991E+00 6.81566E+00 6.66493E+01
 -1       215-4.06224E+01 5.72154E+00 2.56233E+02
 -1       216-3.89350E+01 6.13316E+00 2.46717E+02
 -1       217 3.04238E+01 3.55227E+00 3.14146E+01
 -1       218 1.58930E+01 5.53821E+00 3.41228E+01
 -1       219 1.92235E+01 5.12449E+00 2.06769E+02
 -1       220 3.20005E+01 3.30891E+00 1.94925E+02
 -1       221 3.47336E+01 2.87407E+00 2.08779E+02
 -1       222 2.00260E+01 5.02105E+00 1.84502E+02
 -1       223 3.20005E+01 3.30891E+00 1.74925E+02
 -1       224 1.92235E+01 5.12449E+00 1.66769E+02
 -1       225 2.80880E+01 3.90284E+00 2.19433E+02
 -1       226 3.20005E+01 3.30891E+00 1.54925E+02
 -1       227 2.00260E+01 5.02105E+00 1.44502E+02
 -1       228-4.33781E-01 7.17087E+00 2.61765E+02
 -1       229-1.17301E+01 7.83625E+00 2.66426E+02
 -1       230-4.40250E+01 4.67655E+00 6.37905E+01
 -1       231-4.11344E+01 5.58434E+00 7.11572E+01
 -1       232-8.43222E+00 7.68882E+00 2.36314E+02
 -1       233 3.68978E+00 6.82555E+00 2.48089E+02
 -1       234-3.02463E+01 7.51052E+00 2.31022E+02
 -1       235-3.84203E+01 6.24740E+00 2.37371E+02
 -1       236 3.20005E+01 3.30891E+00 1.34925E+02
 -1       237 1.92235E+01 5.12449E+00 1.26769E+02
 -1       238 1.14566E+01 6.04915E+00 2.70742E+02
 -1       239 2.93714E+01 3.71169E+00 2.64634E+02
 -1       240 2.41601E+01 4.46547E+00 2.75179E+02
 -1       241 4.03507E+01 1.92774E+00 2.71672E+02
 -1       242 3.20001E+01 3.30897E+00 1.14925E+02
 -1       243 1.92235E+01 5.12449E+00 1.06769E+02
 -1       244 3.19881E+01 3.31084E+00 9.49139E+01
 -1       245 1.92235E+01 5.12449E+00 8.67695E+01
 -1       246 3.15835E+01 3.37380E+00 7.46625E+01
 -1       247 1.92235E+01 5.12449E+00 6.67695E+01
 -1       248 3.33872E+01 3.09035E+00 2.32410E+02
 -1       249 3.39978E+01 2.99276E+00 2.48197E+02
 -1       250 6.72451E+00 6.54093E+00 2.84873E+02
 -1       251-1.37518E+01 7.90513E+00 2.87289E+02
 -1       252-3.61999E+00 7.40258E+00 2.75838E+02
 -1       253-2.76909E+01 7.73169E+00 1.35069E+01
 -1       254-3.66206E+01 6.60997E+00 9.30962E+00
 -1       255-3.81201E+01 6.31180E+00 2.91889E+02
 -1       256-2.75921E+01 7.73882E+00 2.84707E+02
 -1       257 1.65577E+01 5.45767E+00 2.55947E+02
 -1       258-1.86107E+01 7.99658E+00 2.75596E+02
 -1       259-2.84441E+01 7.67392E+00 2.73612E+02
 -1       260-3.76013E+01 6.41927E+00 2.78406E+02
 -1       261-4.07630E+01 5.68446E+00 2.84490E+02
 -1       262-4.31059E+01 4.99285E+00 9.28799E+01
 -1       263-3.80472E+01 6.32719E+00 8.26369E+01
 -1       264-3.40177E+01 7.04387E+00 9.23562E+01
 -1       265-2.64736E+01 7.81252E+00 8.38319E+01
 -1       266-4.29589E+01 5.04080E+00 2.12687E+02
 -1       267-3.92037E+01 6.07151E+00 2.03295E+02
 -1       268-3.40177E+01 7.04387E+00 2.12356E+02
 -1       269-2.68444E+01 7.78951E+00 2.03228E+02
 -1       270-4.31059E+01 4.99285E+00 1.72880E+02
 -1       271-3.92094E+01 6.07017E+00 1.63303E+02
 -1       272-3.40177E+01 7.04387E+00 1.72356E+02
 -1       273-2.68443E+01 7.78952E+00 1.63228E+02
 -1       274-4.31059E+01 4.99285E+00 1.32880E+02
 -1       275-3.92094E+01 6.07017E+00 1.23303E+02
 -1       276-3.40177E+01 7.04387E+00 1.32356E+02
 -1       277-2.68443E+01 7.78952E+00 1.23228E+02
 -1       278-3.10254E+01 7.42843E+00 2.96640E+01
 -1       279-4.10037E+01 5.61995E+00 2.60048E+01
 -1       280-3.40560E+01 7.03819E+00 2.01083E+01
 -1       281-4.37301E+01 4.78128E+00 1.67916E+01
 -1       282-2.33325E+01 7.95296E+00 2.27605E+01
 -1       283-4.48736E+01 4.35601E+00 8.63185E+01
 -1       284-4.13624E+01 5.52123E+00 2.70980E+02
 -1       285-4.02625E+01 5.81438E+00 3.54637E+01
 -1       286-4.10398E+01 5.61016E+00 1.83019E+02
 -1       287-4.28025E+01 5.09109E+00 1.93235E+02
 -1       288-4.10398E+01 5.61016E+00 1.43019E+02
 -1       289-4.28025E+01 5.09109E+00 1.53235E+02
 -1       290-4.10398E+01 5.61016E+00 1.03019E+02
 -1       291-4.28025E+01 5.09109E+00 1.13235E+02
 -1       292-3.20700E+01 7.30703E+00 5.14604E+01
 -1       293-3.62846E+01 6.67169E+00 6.12938E+01
 -1       294-4.27639E+01 5.10338E+00 5.40975E+01
 -1       295-2.67086E+01 7.79810E+00 6.08416E+01
 -1       296-2.91609E+01 7.61325E+00 2.21199E+02
 -1       297-3.25341E+01 7.24876E+00 1.91716E+02
 -1       298 2.93426E+01 3.71602E+00 9.32108E+00
 -1       299-2.91609E+01 7.61325E+00 1.81199E+02
 -1       300 3.07784E+01 3.49802E+00 2.86617E+02
 -1       301-3.25341E+01 7.24876E+00 1.51716E+02
 -1       302-2.91609E+01 7.61325E+00 1.41199E+02
 -1       303-3.25341E+01 7.24876E+00 1.11716E+02
 -1       304-1.95546E+01 8.00119E+00 2.36872E+02
 -1       305-2.91609E+01 7.61325E+00 1.01199E+02
 -1       306-3.01815E+01 7.51703E+00 4.01233E+01
 -1       307-2.04490E+01 8.00083E+00 2.13795E+02
 -1       308-1.86562E+01 7.99690E+00 2.25161E+02
 -1       309 1.80588E+01 5.27205E+00 2.20099E+01
 -1       310 7.14841E+00 6.49922E+00 1.13035E+01
 -1       311-2.86141E+01 7.66003E+00 7.23720E+01
 -1       312-1.72050E+01 7.98154E+00 1.29318E+01
 -1       313-1.92978E+01 8.00038E+00 1.95577E+02
 -1       314-1.37751E+01 7.90582E+00 2.04941E+02
 -1       315-2.29882E+01 7.96264E+00 1.74155E+02
 -1       316-1.92155E+01 8.00005E+00 1.85686E+02
 -1       317-1.92978E+01 8.00038E+00 1.55577E+02
 -1       318-1.37750E+01 7.90582E+00 1.64941E+02
 -1       319-5.83656E+00 7.54438E+00 1.51064E+01
 -1       320-2.29882E+01 7.96264E+00 1.34155E+02
 -1       321-1.92155E+01 8.00005E+00 1.45686E+02
 -1       322-1.92978E+01 8.00038E+00 1.15577E+02
 -1       323-1.37750E+01 7.90582E+00 1.24941E+02
 -1       324-4.31556E+01 4.97649E+00 2.64229E+02
 -1       325-2.16698E+01 7.98973E+00 9.48370E+01
 -1       326-1.92155E+01 8.00005E+00 1.05686E+02
 -1       327-4.10203E+01 5.61544E+00 4.47495E+01
 -1       328-1.74760E+01 7.98519E+00 7.62100E+01
 -1       329-1.19714E+01 7.84536E+00 8.54580E+01
 -1       330-1.35733E+01 7.89974E+00 6.70670E+01
 -1       331-1.18730E+01 7.84167E+00 2.24936E+01
 -1       332-4.63929E+01 3.69336E+00 5.00000E+00
 -1       333-4.63929E+01 3.69336E+00 2.95000E+02
 -1       334 3.05646E+01 3.53077E+00 2.93308E+02
 -1       335 4.04112E+01 1.91714E+00 2.93308E+02
 -1       336 4.04112E+01 1.91714E+00 2.83308E+02
 -1       337 3.96959E+01 2.04177E+00 1.46605E+01
 -1       338 3.96959E+01 2.04177E+00 4.66054E+00
 -1       339 2.98467E+01 3.64000E+00 4.66054E+00
 -1       340-4.73264E+01 3.20670E+00 1.33958E+01
 -1       341-4.73264E+01 3.20670E+00 1.83958E+01
 -1       342-4.38202E+01 4.74960E+00 9.65481E+00
 -1       343-3.92360E+01 6.06399E+00 4.65481E+00
 -1       344-4.02088E+01 5.82800E+00 1.30506E+01
 -1       345-4.59905E+01 3.88211E+00 2.30024E+01
 -1       346-4.59905E+01 3.88211E+00 2.80024E+01
 -1       347-4.23743E+01 5.22500E+00 2.13982E+01
 -1       348-4.56250E+01 4.04467E+00 3.27318E+01
 -1       349-4.56250E+01 4.04467E+00 3.77318E+01
 -1       350-4.06335E+01 5.71863E+00 3.07342E+01
 -1       351-4.59987E+01 3.87837E+00 4.23748E+01
 -1       352-4.59987E+01 3.87837E+00 4.73748E+01
 -1       353-4.06418E+01 5.71644E+00 4.01066E+01
 -1       354-4.68549E+01 3.46206E+00 5.70488E+01
 -1       355-4.68549E+01 3.46206E+00 5.20488E+01
 -1       356-4.18949E+01 5.36875E+00 4.94235E+01
 -1       357-4.74697E+01 3.12452E+00 6.68952E+01
 -1       358-4.74697E+01 3.12452E+00 6.18953E+01
 -1       359-4.33965E+01 4.89598E+00 5.89440E+01
 -1       360-4.60549E+01 3.85263E+00 7.55786E+01
 -1       361-4.60549E+01 3.85263E+00 7.05786E+01
 -1       362-4.25885E+01 5.15869E+00 6.74738E+01
 -1       363-4.78802E+01 2.87511E+00 8.81592E+01
 -1       364-4.78802E+01 2.87511E+00 8.31592E+01
 -1       365-4.45286E+01 4.48994E+00 8.13185E+01
 -1       366-3.95963E+01 5.97885E+00 7.68970E+01
 -1       367-4.15002E+01 5.48245E+00 8.44777E+01
 -1       368-4.70221E+01 3.37395E+00 9.64399E+01
 -1       369-4.70221E+01 3.37395E+00 9.14399E+01
 -1       370-4.39945E+01 4.68754E+00 8.95992E+01
 -1       371-4.60083E+01 3.87400E+00 1.06509E+02
 -1       372-4.60083E+01 3.87400E+00 1.01509E+02
 -1       373-4.20768E+01 5.31494E+00 9.79493E+01
 -1       374-4.68738E+01 3.45224E+00 1.16617E+02
 -1       375-4.68738E+01 3.45224E+00 1.11617E+02
 -1       376-4.19240E+01 5.36021E+00 1.08127E+02
 -1       377-4.51044E+01 4.26335E+00 1.21652E+02
 -1       378-4.51044E+01 4.26335E+00 1.26652E+02
 -1       379-4.10157E+01 5.61668E+00 1.18269E+02
 -1       380-4.70221E+01 3.37395E+00 1.36440E+02
 -1       381-4.70221E+01 3.37395E+00 1.31440E+02
 -1       382-4.11695E+01 5.57470E+00 1.28092E+02
 -1       383-4.60083E+01 3.87400E+00 1.46509E+02
 -1       384-4.60083E+01 3.87400E+00 1.41509E+02
 -1       385-4.20768E+01 5.31494E+00 1.37949E+02
 -1       386-4.68738E+01 3.45224E+00 1.56617E+02
 -1       387-4.68738E+01 3.45224E+00 1.51617E+02
 -1       388-4.19240E+01 5.36021E+00 1.48127E+02
 -1       389-4.51044E+01 4.26335E+00 1.61652E+02
 -1       390-4.51044E+01 4.26335E+00 1.66652E+02
 -1       391-4.10157E+01 5.61668E+00 1.58269E+02
 -1       392-4.70221E+01 3.37395E+00 1.76440E+02
 -1       393-4.70221E+01 3.37395E+00 1.71440E+02
 -1       394-4.11695E+01 5.57470E+00 1.68092E+02
 -1       395-4.60083E+01 3.87400E+00 1.86509E+02
 -1       396-4.60083E+01 3.87400E+00 1.81509E+02
 -1       397-4.20768E+01 5.31494E+00 1.77949E+02
 -1       398-4.68738E+01 3.45224E+00 1.96617E+02
 -1       399-4.68738E+01 3.45224E+00 1.91617E+02
 -1       400-4.19240E+01 5.36021E+00 1.88127E+02
 -1       401-4.51016E+01 4.26451E+00 2.01648E+02
 -1       402-4.51016E+01 4.26451E+00 2.06648E+02
 -1       403-4.10129E+01 5.61746E+00 1.98265E+02
 -1       404-4.69503E+01 3.41211E+00 2.16343E+02
 -1       405-4.69503E+01 3.41211E+00 2.11343E+02
 -1       406-4.10921E+01 5.59590E+00 2.07991E+02
 -1       407-4.71020E+01 3.33094E+00 2.24812E+02
 -1       408-4.71020E+01 3.33094E+00 2.29812E+02
 -1       409-4.52724E+01 4.19430E+00 2.20544E+02
 -1       410-4.14206E+01 5.50491E+00 2.25356E+02
 -1       411-4.12632E+01 5.54885E+00 2.16888E+02
 -1       412-4.71020E+01 3.33094E+00 2.34812E+02
 -1       413-4.49686E+01 4.31818E+00 2.48359E+02
 -1       414-4.49686E+01 4.31818E+00 2.43359E+02
 -1       415-4.47137E+01 4.41875E+00 2.38686E+02
 -1       416-4.08623E+01 5.65801E+00 2.33498E+02
 -1       417-3.86778E+01 6.19087E+00 2.42044E+02
 -1       418-4.58025E+01 3.96669E+00 2.53117E+02
 -1       419-4.58025E+01 3.96669E+00 2.58117E+02
 -1       420-3.97804E+01 5.93434E+00 2.51475E+02
 -1       421-4.70464E+01 3.36095E+00 2.67114E+02
 -1       422-4.70464E+01 3.36095E+00 2.62114E+02
 -1       423-4.18948E+01 5.36878E+00 2.60231E+02
 -1       424-4.61671E+01 3.80061E+00 2.75490E+02
 -1       425-4.61671E+01 3.80061E+00 2.70490E+02
 -1       426-4.22621E+01 5.25921E+00 2.67604E+02
 -1       427-4.58719E+01 3.93573E+00 2.87245E+02
 -1       428-4.58719E+01 3.93573E+00 2.82245E+02
 -1       429-4.43074E+01 4.57317E+00 2.79203E+02
 -1       430-3.91876E+01 6.07524E+00 2.81448E+02
 -1       431-3.94900E+01 6.00426E+00 2.74693E+02
 -1       432-4.45648E+01 4.47615E+00 2.90945E+02
 -1       433-3.99794E+01 5.88542E+00 2.95945E+02
 -1       434-3.94455E+01 6.01481E+00 2.88190E+02
 -1       435-3.31732E+01 7.16404E+00 2.95945E+02
 -1       436-1.15388E+01 7.82886E+00 2.93645E+02
 -1       437-2.09687E+01 7.99775E+00 2.93645E+02
 -1       438-2.78873E+01 7.71721E+00 2.92354E+02
 -1       439-2.06729E+01 7.99980E+00 2.85998E+02
 -1       440-3.28798E+01 7.20359E+00 2.88298E+02
 -1       441-1.29354E+00 7.23652E+00 2.92437E+02
 -1       442 8.64463E+00 6.34824E+00 2.92437E+02
 -1       443-3.50196E+00 7.39457E+00 2.86081E+02
 -1       444 2.06859E+01 4.93491E+00 2.93308E+02
 -1       445 1.87721E+01 5.18204E+00 2.85745E+02
 -1       446 4.02346E+01 1.94803E+00 3.57073E+01
 -1       447 4.02346E+01 1.94803E+00 2.57073E+01
 -1       448 2.98833E+01 3.63446E+00 2.03679E+01
 -1       449 4.32728E+01 1.40657E+00 5.29237E+01
 -1       450 4.32728E+01 1.40657E+00 4.29237E+01
 -1       451 3.34731E+01 3.07667E+00 3.86310E+01
 -1       452 4.08124E+01 1.84672E+00 7.73312E+01
 -1       453 4.08124E+01 1.84672E+00 6.73312E+01
 -1       454 3.23492E+01 3.25434E+00 5.24032E+01
 -1       455 3.91134E+01 2.14237E+00 5.94795E+01
 -1       456 2.98790E+01 3.63511E+00 6.68108E+01
 -1       457 4.10140E+01 1.81119E+00 9.74569E+01
 -1       458 4.10140E+01 1.81119E+00 8.74569E+01
 -1       459 3.17858E+01 3.34236E+00 8.47882E+01
 -1       460 4.10200E+01 1.81014E+00 1.17462E+02
 -1       461 4.10200E+01 1.81014E+00 1.07462E+02
 -1       462 3.19941E+01 3.30990E+00 1.04919E+02
 -1       463 4.10202E+01 1.81011E+00 1.37463E+02
 -1       464 4.10202E+01 1.81011E+00 1.27463E+02
 -1       465 3.20003E+01 3.30894E+00 1.24925E+02
 -1       466 4.10202E+01 1.81011E+00 1.57463E+02
 -1       467 4.10202E+01 1.81011E+00 1.47463E+02
 -1       468 3.20005E+01 3.30891E+00 1.44925E+02
 -1       469 4.10202E+01 1.81011E+00 1.77463E+02
 -1       470 4.10202E+01 1.81011E+00 1.67463E+02
 -1       471 3.20005E+01 3.30891E+00 1.64925E+02
 -1       472 4.10202E+01 1.81011E+00 1.97463E+02
 -1       473 4.10202E+01 1.81011E+00 1.87463E+02
 -1       474 3.20005E+01 3.30891E+00 1.84925E+02
 -1       475 4.23825E+01 1.56750E+00 2.14390E+02
 -1       476 4.23825E+01 1.56750E+00 2.04390E+02
 -1       477 3.33674E+01 3.09350E+00 2.01852E+02
 -1       478 4.17113E+01 1.68758E+00 2.36205E+02
 -1       479 4.17113E+01 1.68758E+00 2.26205E+02
 -1       480 3.14126E+01 3.40029E+00 2.14106E+02
 -1       481 3.90709E+01 2.14969E+00 2.19717E+02
 -1       482 3.07387E+01 3.50411E+00 2.25922E+02
 -1       483 4.20157E+01 1.63325E+00 2.54098E+02
 -1       484 4.20157E+01 1.63325E+00 2.44098E+02
 -1       485 3.36925E+01 3.04166E+00 2.40303E+02
 -1       486 4.51841E+01 1.05460E+00 2.75836E+02
 -1       487 4.51841E+01 1.05460E+00 2.65836E+02
 -1       488 3.48664E+01 2.85252E+00 2.68153E+02
 -1       489 3.97102E+01 2.03928E+00 2.62317E+02
 -1       490 3.16855E+01 3.35796E+00 2.56415E+02
 -1       491 3.55686E+01 2.73790E+00 2.79144E+02
 -1       492-3.24156E+01 7.26389E+00 4.65481E+00
 -1       493-1.32647E+01 7.89010E+00 6.46591E+00
 -1       494-2.26969E+01 7.96998E+00 6.46591E+00
 -1       495-3.21711E+01 7.29456E+00 1.14083E+01
 -1       496-2.79367E+01 7.71350E+00 6.75346E+00
 -1       497-2.24505E+01 7.97558E+00 1.32194E+01
 -1       498-1.08115E+00 7.22051E+00 5.65176E+00
 -1       499 8.85648E+00 6.32640E+00 5.65176E+00
 -1       500-7.58125E+00 7.64412E+00 7.55322E+00
 -1       501 6.60962E-01 7.08404E+00 1.32050E+01
 -1       502-1.15183E+01 7.82806E+00 1.40191E+01
 -1       503 1.99659E+01 5.02885E+00 4.66054E+00
 -1       504 1.82630E+01 5.24640E+00 1.03123E+01
 -1       505-3.68237E+01 6.57176E+00 2.30323E+02
 -1       506-3.49224E+01 6.90429E+00 2.26055E+02
 -1       507-3.43836E+01 6.98879E+00 2.21144E+02
 -1       508-2.97037E+01 7.56353E+00 2.26111E+02
 -1       509-3.85281E+01 6.22389E+00 2.12521E+02
 -1       510-3.67947E+01 6.57726E+00 2.16722E+02
 -1       511-3.15934E+01 7.36406E+00 2.16778E+02
 -1       512-3.43508E+01 6.99380E+00 2.34197E+02
 -1       513-1.95687E+01 8.00123E+00 4.93072E+01
 -1       514-1.38010E+01 7.90659E+00 4.89783E+01
 -1       515-1.53308E+01 7.94677E+00 4.47950E+01
 -1       516-1.36763E+01 7.90287E+00 3.82762E+01
 -1       517-1.94439E+01 8.00089E+00 3.86052E+01
 -1       518-2.50651E+01 7.88733E+00 5.24754E+01
 -1       519-2.65940E+01 7.80520E+00 4.82922E+01
 -1       520-2.56456E+01 7.85888E+00 4.26236E+01
 -1       521-2.39915E+01 7.93136E+00 3.61048E+01
 -1       522-3.11263E+01 7.41728E+00 4.57918E+01
 -1       523-1.06918E+01 7.79439E+00 5.49593E+01
 -1       524-6.45922E+00 7.58120E+00 5.04471E+01
 -1       525 9.57301E-01 7.05992E+00 5.05857E+01
 -1       526-2.14446E+00 7.29924E+00 4.46047E+01
 -1       527 2.44674E+00 6.93481E+00 3.64191E+01
 -1       528-4.96726E+00 7.49073E+00 3.62804E+01
 -1       529-9.07388E+00 7.72077E+00 3.00906E+01
 -1       530-1.58055E+01 7.95711E+00 6.02787E+01
 -1       531-8.46138E+00 7.69031E+00 6.17475E+01
 -1       532-2.93929E+01 7.59240E+00 5.61510E+01
 -1       533-2.23752E+01 7.97719E+00 5.71661E+01
 -1       534-2.01411E+01 8.00159E+00 6.39543E+01
 -1       535 4.75857E+00 6.72816E+00 5.59656E+01
 -1       536 9.06164E+00 6.30514E+00 5.01233E+01
 -1       537 2.24275E-01 7.11910E+00 6.15387E+01
 -1       538 8.33010E+00 6.38046E+00 6.10762E+01
 -1       539-4.87859E+00 7.48512E+00 6.68581E+01
 -1       540-3.28011E+01 7.21401E+00 2.58630E+02
 -1       541-2.93245E+01 7.59861E+00 2.63156E+02
 -1       542-2.70077E+01 7.77893E+00 2.58761E+02
 -1       543-2.24607E+01 7.97536E+00 2.53190E+02
 -1       544-1.89654E+01 7.99883E+00 2.57716E+02
 -1       545-3.55900E+01 6.79377E+00 2.55234E+02
 -1       546-3.78749E+01 6.36318E+00 2.59629E+02
 -1       547-2.90152E+01 7.62603E+00 2.48748E+02
 -1       548-2.09777E+01 7.99768E+00 2.47703E+02
 -1       549-3.32648E+01 7.15146E+00 2.44989E+02
 -1       550-3.47336E+01 6.93437E+00 2.50476E+02
 -1       551-2.59809E+01 7.84092E+00 2.68449E+02
 -1       552-3.17803E+01 7.34202E+00 2.68319E+02
 -1       553-1.76211E+01 7.98700E+00 2.64856E+02
 -1       554-1.30734E+01 7.88392E+00 2.59286E+02
 -1       555-2.10628E+01 7.99694E+00 2.69441E+02
 -1       556-1.51697E+01 7.94303E+00 2.71011E+02
 -1       557-2.35309E+01 7.94689E+00 2.74604E+02
 -1       558-3.91639E+01 6.08073E+00 2.63627E+02
 -1       559-3.82499E+01 6.28416E+00 2.67002E+02
 -1       560-3.49519E+01 6.89954E+00 2.72296E+02
 -1       561-1.69855E+01 7.97832E+00 2.44509E+02
 -1       562-2.35475E+01 7.94636E+00 2.40067E+02
 -1       563-3.30039E+01 7.18700E+00 2.40316E+02
 -1       564-2.88919E+01 7.63667E+00 2.37141E+02
 -1       565-2.49066E+01 7.89453E+00 2.33947E+02
 -1       566-6.07863E+00 7.55885E+00 2.64096E+02
 -1       567-7.42053E+00 7.63539E+00 2.56955E+02
 -1       568 1.62851E+00 7.00434E+00 2.54927E+02
 -1       569-5.35489E+00 7.51497E+00 2.50117E+02
 -1       570-1.14239E+01 7.82435E+00 2.44230E+02
 -1       571-2.36705E+00 7.31528E+00 2.42202E+02
 -1       572-1.39915E+01 7.91215E+00 2.36593E+02
 -1       573-4.14950E-02 7.14017E+00 2.26585E+02
 -1       574 8.80098E+00 6.33213E+00 2.26181E+02
 -1       575 2.04614E+00 6.96909E+00 2.19368E+02
 -1       576 5.66392E+00 6.64323E+00 2.13441E+02
 -1       577-3.18540E+00 7.37287E+00 2.13846E+02
 -1       578-7.62142E+00 7.64629E+00 2.28043E+02
 -1       579-8.50934E-01 7.20300E+00 2.34856E+02
 -1       580-6.66390E+00 7.59301E+00 2.06430E+02
 -1       581-1.02919E+01 7.77713E+00 2.12357E+02
 -1       582-1.35425E+01 7.89880E+00 2.30738E+02
 -1       583-1.27310E+01 7.87248E+00 2.22467E+02
 -1       584-1.95526E+01 8.00119E+00 2.19478E+02
 -1       585-1.36268E+01 7.90137E+00 2.16784E+02
 -1       586-1.71116E+01 7.98020E+00 2.09368E+02
 -1       587 1.53874E+01 5.59878E+00 2.24278E+02
 -1       588 1.33070E+01 5.84173E+00 2.31496E+02
 -1       589 1.50561E+01 5.63815E+00 2.12866E+02
 -1       590 9.84192E+00 6.22331E+00 2.07344E+02
 -1       591 2.39892E+01 4.48919E+00 2.24513E+02
 -1       592 1.94965E+01 5.08946E+00 2.19198E+02
 -1       593 2.36587E+01 4.53487E+00 2.13101E+02
 -1       594 1.93866E+01 5.10359E+00 2.36063E+02
 -1       595 1.28073E+01 5.89855E+00 2.37965E+02
 -1       596 5.20365E+00 6.68669E+00 2.40744E+02
 -1       597 1.12965E+01 6.06671E+00 2.45311E+02
 -1       598 7.76854E+00 6.43734E+00 3.11088E+01
 -1       599 1.05825E+01 6.14423E+00 3.94331E+01
 -1       600 1.66548E+01 5.44582E+00 4.98874E+01
 -1       601 1.28653E+01 5.89199E+00 4.45075E+01
 -1       602 1.81725E+01 5.25778E+00 3.91972E+01
 -1       603-6.11958E+00 7.56128E+00 2.52942E+01
 -1       604-1.48303E+01 7.93476E+00 2.72900E+01
 -1       605 1.69760E+01 5.40645E+00 2.80663E+01
 -1       606 8.85401E+00 6.32665E+00 2.50523E+01
 -1       607 1.26076E+01 5.92110E+00 1.66567E+01
 -1       608 3.38945E+00 6.85235E+00 1.96992E+01
 -1       609-3.10395E+00 7.36723E+00 2.16006E+01
 -1       610-8.85392E+00 7.70999E+00 1.88000E+01
 -1       611-3.24305E+00 7.37685E+00 2.01504E+02
 -1       612 6.38985E+00 6.57353E+00 2.01646E+02
 -1       613 2.71519E+00 6.91159E+00 1.95231E+02
 -1       614 8.29353E+00 6.38418E+00 1.89603E+02
 -1       615-1.33487E+00 7.23962E+00 1.89461E+02
 -1       616-1.03496E+01 7.77966E+00 2.00015E+02
 -1       617-7.61930E+00 7.64618E+00 1.86880E+02
 -1       618-2.02717E+00 7.29073E+00 1.81252E+02
 -1       619-1.30682E+01 7.88375E+00 1.90388E+02
 -1       620-1.37621E+01 7.90544E+00 1.82178E+02
 -1       621-1.65361E+01 7.97101E+00 2.00259E+02
 -1       622-1.31093E+01 7.88510E+00 1.95333E+02
 -1       623-1.92567E+01 8.00022E+00 1.90632E+02
 -1       624 1.57802E+01 5.55177E+00 2.01071E+02
 -1       625 1.61819E+01 5.50333E+00 1.89938E+02
 -1       626 1.21460E+01 5.97284E+00 1.84168E+02
 -1       627 2.56182E+01 4.26054E+00 2.00847E+02
 -1       628 2.21813E+01 4.73612E+00 1.95149E+02
 -1       629 2.60188E+01 4.20343E+00 1.89714E+02
 -1       630-2.44153E+01 7.91530E+00 3.08752E+01
 -1       631-2.05607E+01 8.00037E+00 2.74234E+01
 -1       632-2.71841E+01 7.76720E+00 2.62122E+01
 -1       633-3.06036E+01 7.47376E+00 3.48936E+01
 -1       634-1.76017E+01 7.98677E+00 2.26271E+01
 -1       635 9.35056E+00 6.27501E+00 1.39888E+02
 -1       636 7.44754E+00 6.46950E+00 1.31931E+02
 -1       637 2.34369E+00 6.94368E+00 1.35876E+02
 -1       638-3.93554E+00 7.42376E+00 1.33295E+02
 -1       639-2.02717E+00 7.29073E+00 1.41252E+02
 -1       640 1.72367E+01 5.37434E+00 1.40222E+02
 -1       641 1.21460E+01 5.97284E+00 1.44168E+02
 -1       642-7.61930E+00 7.64618E+00 1.46880E+02
 -1       643-1.33487E+00 7.23962E+00 1.49461E+02
 -1       644 2.71520E+00 6.91159E+00 1.55231E+02
 -1       645 8.29354E+00 6.38418E+00 1.49603E+02
 -1       646 1.61819E+01 5.50332E+00 1.49938E+02
 -1       647 1.68351E+01 5.42375E+00 1.31356E+02
 -1       648 9.84204E+00 6.22329E+00 1.27345E+02
 -1       649-6.66376E+00 7.59301E+00 1.26430E+02
 -1       650-1.10432E+01 7.80904E+00 1.31806E+02
 -1       651-3.24292E+00 7.37684E+00 1.21504E+02
 -1       652 6.04584E+00 6.60674E+00 1.22568E+02
 -1       653 2.37072E+00 6.94135E+00 1.16153E+02
 -1       654-1.03496E+01 7.77966E+00 1.20015E+02
 -1       655 1.54369E+01 5.59287E+00 1.21993E+02
 -1       656 2.60188E+01 4.20343E+00 1.39714E+02
 -1       657 2.32343E+01 4.59317E+00 1.35434E+02
 -1       658 2.56182E+01 4.26054E+00 1.30847E+02
 -1       659-1.30682E+01 7.88375E+00 1.50388E+02
 -1       660-1.37621E+01 7.90544E+00 1.42178E+02
 -1       661-2.11020E+01 7.99657E+00 1.39921E+02
 -1       662-1.56475E+01 7.95378E+00 1.36413E+02
 -1       663-1.83811E+01 7.99479E+00 1.29548E+02
 -1       664-3.24292E+00 7.37684E+00 1.61504E+02
 -1       665 6.38999E+00 6.57352E+00 1.61646E+02
 -1       666-6.66376E+00 7.59301E+00 1.66430E+02
 -1       667-1.03496E+01 7.77966E+00 1.60015E+02
 -1       668-1.65361E+01 7.97101E+00 1.60259E+02
 -1       669-1.31093E+01 7.88510E+00 1.55333E+02
 -1       670-1.92567E+01 8.00022E+00 1.50632E+02
 -1       671 1.57802E+01 5.55177E+00 1.61071E+02
 -1       672 9.84204E+00 6.22329E+00 1.67344E+02
 -1       673 2.56182E+01 4.26054E+00 1.60847E+02
 -1       674 2.21813E+01 4.73611E+00 1.55149E+02
 -1       675 2.60188E+01 4.20343E+00 1.49714E+02
 -1       676 9.35056E+00 6.27501E+00 1.79888E+02
 -1       677 7.44754E+00 6.46950E+00 1.71931E+02
 -1       678 2.34369E+00 6.94368E+00 1.75876E+02
 -1       679-3.93554E+00 7.42376E+00 1.73295E+02
 -1       680 1.68351E+01 5.42375E+00 1.71356E+02
 -1       681-1.10432E+01 7.80904E+00 1.71806E+02
 -1       682 1.72367E+01 5.37434E+00 1.80222E+02
 -1       683 2.60188E+01 4.20343E+00 1.79714E+02
 -1       684 2.32343E+01 4.59317E+00 1.75434E+02
 -1       685 2.56182E+01 4.26054E+00 1.70847E+02
 -1       686-2.11020E+01 7.99657E+00 1.79921E+02
 -1       687-1.56475E+01 7.95378E+00 1.76413E+02
 -1       688-1.83811E+01 7.99479E+00 1.69548E+02
 -1       689 2.05227E+01 4.95630E+00 5.72311E+01
 -1       690 2.43143E+01 4.44402E+00 5.16153E+01
 -1       691 2.84951E+01 3.84259E+00 4.50595E+01
 -1       692 2.54410E+01 4.28570E+00 3.78431E+01
 -1       693 2.31662E+01 4.60248E+00 3.27687E+01
 -1       694 2.37015E+01 4.52896E+00 6.28643E+01
 -1       695 1.60406E+01 5.52040E+00 6.11363E+01
 -1       696 2.54093E+01 4.29018E+00 7.07160E+01
 -1       697 1.15196E+01 6.04222E+00 6.67094E+01
 -1       698 7.72514E+00 6.44171E+00 1.11933E+02
 -1       699-1.55981E+00 7.25639E+00 1.10869E+02
 -1       700-6.01317E+00 7.55496E+00 1.07206E+02
 -1       701-6.47914E-01 7.18743E+00 1.02986E+02
 -1       702-1.30682E+01 7.88375E+00 1.10388E+02
 -1       703-1.21542E+01 7.85210E+00 1.02505E+02
 -1       704-1.65361E+01 7.97101E+00 1.20259E+02
 -1       705-1.31093E+01 7.88510E+00 1.15333E+02
 -1       706-1.92566E+01 8.00022E+00 1.10632E+02
 -1       707 1.54369E+01 5.59287E+00 1.11993E+02
 -1       708 1.15196E+01 6.04222E+00 1.06709E+02
 -1       709 2.56180E+01 4.26056E+00 1.20847E+02
 -1       710 2.18385E+01 4.78213E+00 1.16071E+02
 -1       711 2.56180E+01 4.26056E+00 1.10847E+02
 -1       712 7.72514E+00 6.44171E+00 1.01933E+02
 -1       713 3.28171E+00 6.86190E+00 9.82698E+01
 -1       714 7.54627E+00 6.45964E+00 9.19753E+01
 -1       715-8.27160E-01 7.20119E+00 9.30287E+01
 -1       716-4.25836E+00 7.44510E+00 8.60961E+01
 -1       717-8.53480E+00 7.69403E+00 9.23906E+01
 -1       718-2.04426E+01 8.00085E+00 1.00262E+02
 -1       719-1.33804E+01 7.89376E+00 9.70801E+01
 -1       720-1.68197E+01 7.97573E+00 9.01475E+01
 -1       721 1.54369E+01 5.59287E+00 1.01993E+02
 -1       722 1.54369E+01 5.59287E+00 9.19929E+01
 -1       723 1.13409E+01 6.06183E+00 8.67518E+01
 -1       724 2.56120E+01 4.26142E+00 1.00842E+02
 -1       725 2.18324E+01 4.78293E+00 9.60651E+01
 -1       726 2.56120E+01 4.26142E+00 9.08417E+01
 -1       727-6.26437E-01 7.18578E+00 8.19785E+01
 -1       728 7.54627E+00 6.45964E+00 8.19753E+01
 -1       729 3.48223E+00 6.84410E+00 7.72196E+01
 -1       730 7.72514E+00 6.44171E+00 7.19328E+01
 -1       731-4.47199E-01 7.17191E+00 7.19360E+01
 -1       732-8.33375E+00 7.68379E+00 8.13404E+01
 -1       733-9.13412E+00 7.72369E+00 7.21449E+01
 -1       734-1.47233E+01 7.93205E+00 8.08340E+01
 -1       735-1.10839E+01 7.81070E+00 7.67164E+01
 -1       736-1.55244E+01 7.95111E+00 7.16385E+01
 -1       737 1.54369E+01 5.59287E+00 8.19929E+01
 -1       738 1.54369E+01 5.59287E+00 7.19929E+01
 -1       739 2.54093E+01 4.29018E+00 8.07160E+01
 -1       740 2.16295E+01 4.81004E+00 7.59395E+01
 -1       741 2.61456E+01 4.18528E+00 2.37471E+02
 -1       742 2.66433E+01 4.11369E+00 2.31002E+02
 -1       743 1.77229E+01 5.31403E+00 2.49240E+02
 -1       744 1.01292E+01 6.19280E+00 2.52018E+02
 -1       745 2.64516E+01 4.14132E+00 2.45365E+02
 -1       746 2.52893E+01 4.30717E+00 2.52072E+02
 -1       747 2.42470E+01 4.45338E+00 2.67123E+01
 -1       748 2.37054E+01 4.52842E+00 1.56655E+01
 -1       749 2.69879E+01 4.06381E+00 2.07774E+02
 -1       750-2.02660E+00 7.29069E+00 2.68802E+02
 -1       751-7.67342E+00 7.64909E+00 2.71132E+02
 -1       752 8.07131E+00 6.40677E+00 2.58856E+02
 -1       753 3.92540E+00 6.80435E+00 2.73290E+02
 -1       754 5.51589E+00 6.65727E+00 2.66254E+02
 -1       755 1.40080E+01 5.76101E+00 2.63344E+02
 -1       756-1.11108E+01 7.81180E+00 2.75717E+02
 -1       757-4.01946E+01 5.83158E+00 6.25421E+01
 -1       758-3.87214E+01 6.18118E+00 6.62255E+01
 -1       759-3.95488E+01 5.99022E+00 5.76957E+01
 -1       760-3.49196E+01 6.90472E+00 7.17646E+01
 -1       761-3.33509E+01 7.13954E+00 7.75045E+01
 -1       762-3.24611E+01 7.25810E+00 6.68329E+01
 -1       763-1.91054E+01 7.99955E+00 2.31017E+02
 -1       764-2.39131E+01 7.93415E+00 2.23180E+02
 -1       765-2.44577E+01 7.91360E+00 2.28092E+02
 -1       766 1.78140E+01 5.30267E+00 2.72960E+02
 -1       767 2.67668E+01 4.09584E+00 2.69906E+02
 -1       768 2.04256E+01 4.96900E+00 2.67688E+02
 -1       769 2.29706E+01 4.62919E+00 2.60290E+02
 -1       770 1.54528E+01 5.59098E+00 2.80026E+02
 -1       771 9.09129E+00 6.30205E+00 2.77807E+02
 -1       772 1.55549E+00 7.01045E+00 2.80355E+02
 -1       773 3.22664E+01 3.26732E+00 2.73425E+02
 -1       774 2.74710E+01 3.99345E+00 2.80898E+02
 -1       775-8.68349E+00 7.70151E+00 2.81563E+02
 -1       776-1.61810E+01 7.96456E+00 2.81442E+02
 -1       777-2.31040E+01 7.95951E+00 2.80152E+02
 -1       778-3.53402E+01 6.83588E+00 1.47089E+01
 -1       779-3.08799E+01 7.44431E+00 1.68076E+01
 -1       780-2.87074E+01 7.65228E+00 2.14344E+01
 -1       781-2.55129E+01 7.86567E+00 1.81337E+01
 -1       782-2.02689E+01 8.00136E+00 1.78461E+01
 -1       783-3.89433E+01 6.13127E+00 1.84499E+01
 -1       784-3.42231E+01 7.01318E+00 2.84599E+02
 -1       785-2.80182E+01 7.70733E+00 2.79160E+02
 -1       786-3.26173E+01 7.23803E+00 2.81557E+02
 -1       787-3.30410E+01 7.18200E+00 2.76009E+02
 -1       788-3.86035E+01 6.20732E+00 9.26180E+01
 -1       789-3.60378E+01 6.71591E+00 8.74966E+01
 -1       790-4.05945E+01 5.72883E+00 8.77584E+01
 -1       791-3.75495E+01 6.42976E+00 9.76874E+01
 -1       792-3.22867E+01 7.28015E+00 8.32344E+01
 -1       793-3.02538E+01 7.50975E+00 8.80941E+01
 -1       794-2.75443E+01 7.74224E+00 7.81020E+01
 -1       795-2.78588E+01 7.71933E+00 9.35966E+01
 -1       796-2.40727E+01 7.92842E+00 8.93344E+01
 -1       797-3.51424E+01 6.86858E+00 1.02109E+02
 -1       798-3.15934E+01 7.36406E+00 9.67778E+01
 -1       799-2.54187E+01 7.87039E+00 9.80182E+01
 -1       800-2.30488E+01 7.96102E+00 7.42910E+01
 -1       801-2.19763E+01 7.98483E+00 8.00210E+01
 -1       802-1.92218E+01 8.00007E+00 8.46450E+01
 -1       803-3.66204E+01 6.60999E+00 2.07826E+02
 -1       804-3.30577E+01 7.17974E+00 2.03262E+02
 -1       805-3.04387E+01 7.49091E+00 2.07792E+02
 -1       806-3.58834E+01 6.74310E+00 1.97506E+02
 -1       807-2.96935E+01 7.56450E+00 1.97472E+02
 -1       808-3.77146E+01 6.39620E+00 1.92475E+02
 -1       809-2.72497E+01 7.76275E+00 2.13076E+02
 -1       810-2.36482E+01 7.94312E+00 2.08512E+02
 -1       811-2.48089E+01 7.89884E+00 2.17497E+02
 -1       812-2.59279E+01 7.84384E+00 1.93647E+02
 -1       813-2.30729E+01 7.96036E+00 1.99403E+02
 -1       814-2.03101E+01 8.00126E+00 2.04085E+02
 -1       815-3.86035E+01 6.20732E+00 1.72618E+02
 -1       816-3.66233E+01 6.60945E+00 1.67830E+02
 -1       817-3.75495E+01 6.42976E+00 1.77687E+02
 -1       818-3.30606E+01 7.17935E+00 1.63266E+02
 -1       819-3.04386E+01 7.49091E+00 1.67792E+02
 -1       820-3.58863E+01 6.74259E+00 1.57510E+02
 -1       821-2.96935E+01 7.56450E+00 1.57472E+02
 -1       822-3.77146E+01 6.39620E+00 1.52475E+02
 -1       823-2.85164E+01 7.66805E+00 1.73256E+02
 -1       824-2.49170E+01 7.89406E+00 1.68692E+02
 -1       825-3.51424E+01 6.86858E+00 1.82109E+02
 -1       826-3.15934E+01 7.36406E+00 1.76778E+02
 -1       827-2.60772E+01 7.83557E+00 1.77677E+02
 -1       828-2.59279E+01 7.84384E+00 1.53647E+02
 -1       829-2.30728E+01 7.96036E+00 1.59403E+02
 -1       830-2.03101E+01 8.00126E+00 1.64085E+02
 -1       831-3.86035E+01 6.20732E+00 1.32618E+02
 -1       832-3.66233E+01 6.60945E+00 1.27830E+02
 -1       833-3.75495E+01 6.42976E+00 1.37687E+02
 -1       834-3.30606E+01 7.17935E+00 1.23266E+02
 -1       835-3.04386E+01 7.49091E+00 1.27792E+02
 -1       836-3.58863E+01 6.74260E+00 1.17510E+02
 -1       837-2.96935E+01 7.56450E+00 1.17472E+02
 -1       838-3.77146E+01 6.39620E+00 1.12475E+02
 -1       839-2.85164E+01 7.66805E+00 1.33256E+02
 -1       840-2.49170E+01 7.89406E+00 1.28692E+02
 -1       841-3.51424E+01 6.86858E+00 1.42109E+02
 -1       842-3.15934E+01 7.36406E+00 1.36778E+02
 -1       843-2.60772E+01 7.83557E+00 1.37677E+02
 -1       844-2.59279E+01 7.84384E+00 1.13647E+02
 -1       845-2.30728E+01 7.96036E+00 1.19403E+02
 -1       846-2.03101E+01 8.00126E+00 1.24085E+02
 -1       847-3.25426E+01 7.24767E+00 2.48861E+01
 -1       848-3.75501E+01 6.42962E+00 2.30565E+01
 -1       849-3.60482E+01 6.71406E+00 2.78344E+01
 -1       850-3.56712E+01 6.77988E+00 3.25638E+01
 -1       851-3.52526E+01 6.85044E+00 3.77935E+01
 -1       852-1.45386E+01 7.92725E+00 1.77127E+01
 -1       853-3.56384E+01 6.78549E+00 4.24364E+01
 -1       854-3.68142E+01 6.57356E+00 1.87367E+02
 -1       855-3.08493E+01 7.44761E+00 1.86458E+02
 -1       856-3.68142E+01 6.57356E+00 1.47367E+02
 -1       857-3.08493E+01 7.44761E+00 1.46458E+02
 -1       858-3.68142E+01 6.57356E+00 1.07367E+02
 -1       859-3.08493E+01 7.44761E+00 1.06458E+02
 -1       860-3.74653E+01 6.44667E+00 5.27790E+01
 -1       861-3.41818E+01 7.01939E+00 5.63771E+01
 -1       862-3.15126E+01 7.37345E+00 6.10677E+01
 -1       863-3.65743E+01 6.61856E+00 4.81050E+01
 -1       864-2.76617E+01 7.73381E+00 6.66068E+01
 -1       865-2.10957E+01 7.99663E+00 6.97195E+01
 -1       866-2.41926E+01 7.92395E+00 1.83443E+02
 -1       867-2.58868E+01 7.84608E+00 1.88701E+02
 -1       868-2.41926E+01 7.92395E+00 1.43443E+02
 -1       869-2.58868E+01 7.84608E+00 1.48701E+02
 -1       870-2.41926E+01 7.92395E+00 1.03443E+02
 -1       871-2.58868E+01 7.84608E+00 1.08701E+02
 -1       872 5.00000E+01-1.21986E-13 2.90000E+02
 -1       873 5.00000E+01-1.21986E-13 2.80000E+02
 -1       874 5.00000E+01-1.21986E-13 1.00000E+01
 -1       875 5.00000E+01-1.21986E-13 2.00000E+01
 -1       876 5.00000E+01-1.21986E-13 3.00000E+01
 -1       877 5.00000E+01-1.21986E-13 5.00000E+01
 -1       878 5.00000E+01-1.21986E-13 4.00000E+01
 -1       879 5.00000E+01-1.21986E-13 7.00000E+01
 -1       880 5.00000E+01-1.21986E-13 6.00000E+01
 -1       881 5.00000E+01-1.21986E-13 9.00000E+01
 -1       882 5.00000E+01-1.21986E-13 8.00000E+01
 -1       883 5.00000E+01-1.21986E-13 1.10000E+02
 -1       884 5.00000E+01-1.21986E-13 1.00000E+02
 -1       885 5.00000E+01-1.21986E-13 1.30000E+02
 -1       886 5.00000E+01-1.21986E-13 1.20000E+02
 -1       887 5.00000E+01-1.21986E-13 1.60000E+02
 -1       888 5.00000E+01-1.21986E-13 1.50000E+02
 -1       889 5.00000E+01-1.21986E-13 1.40000E+02
 -1       890 5.00000E+01-1.21986E-13 1.80000E+02
 -1       891 5.00000E+01-1.21986E-13 1.70000E+02
 -1       892 5.00000E+01-1.21986E-13 1.90000E+02
 -1       893 5.00000E+01-1.21986E-13 2.10000E+02
 -1       894 5.00000E+01-1.21986E-13 2.00000E+02
 -1       895 5.00000E+01-1.21986E-13 2.30000E+02
 -1       896 5.00000E+01-1.21986E-13 2.20000E+02
 -1       897 5.00000E+01-1.21986E-13 2.50000E+02
 -1       898 5.00000E+01-1.21986E-13 2.40000E+02
 -1       899 5.00000E+01-1.21986E-13 2.70000E+02
 -1       900 5.00000E+01-1.21986E-13 2.60000E+02
 -1       901-6.18195E+00-3.71471E+00 2.69921E+02
 -1       902 9.01435E+00-2.97956E+00 2.72855E+02
 -1       903-3.21669E+00-3.59660E+00 2.86861E+02
 -1       904-1.65627E+01-3.98062E+00 2.11781E+02
 -1       905-1.43406E+01-3.94683E+00 2.02713E+02
 -1       906-7.69304E+00-3.76874E+00 2.14420E+02
 -1       907 2.26693E+01-2.13253E+00 1.22406E+02
 -1       908 9.02804E+00-2.97878E+00 1.31519E+02
 -1       909 5.59325E+00-3.16939E+00 1.15891E+02
 -1       910-1.61573E+01-3.97556E+00 1.10950E+02
 -1       911-2.55291E+01-3.99257E+00 1.07319E+02
 -1       912-1.68541E+01-3.98394E+00 1.00914E+02
 -1       913-6.16514E+00-3.71409E+00 2.35152E+02
 -1       914 4.76059E+00-3.21383E+00 2.32470E+02
 -1       915-9.24243E-01-3.49547E+00 2.44723E+02
 -1       916 1.07922E+01-2.87674E+00 5.24760E+01
 -1       917 2.36927E+01-2.06454E+00 4.30316E+01
 -1       918 3.00689E+01-1.62906E+00 5.64744E+01
 -1       919 8.73080E+00-2.99571E+00 2.18254E+02
 -1       920-5.01036E+00-3.66988E+00 2.24256E+02
 -1       921 3.66093E+01-1.16144E+00 4.57676E+01
 -1       922-3.48663E+00-3.60797E+00 1.94951E+02
 -1       923 8.18475E+00-3.02661E+00 1.94643E+02
 -1       924 1.15799E+00-3.39705E+00 2.03958E+02
 -1       925-6.74681E+00-3.73543E+00 1.21235E+02
 -1       926-1.73164E+01-3.98865E+00 1.21034E+02
 -1       927-5.52654E+00-3.68994E+00 1.73917E+02
 -1       928 8.18475E+00-3.02661E+00 1.74643E+02
 -1       929-1.75058E+00-3.53284E+00 1.84448E+02
 -1       930-4.47790E+00-3.64869E+00 1.05724E+02
 -1       931-5.52654E+00-3.68994E+00 1.53917E+02
 -1       932 8.18475E+00-3.02661E+00 1.54643E+02
 -1       933-1.75058E+00-3.53284E+00 1.64448E+02
 -1       934 2.01318E+01-2.29874E+00 8.68512E+01
 -1       935 2.91522E+01-1.69290E+00 9.91729E+01
 -1       936 1.02435E+01-2.90875E+00 9.92630E+01
 -1       937-4.70601E+00-3.65783E+00 1.33837E+02
 -1       938-1.75058E+00-3.53284E+00 1.44448E+02
 -1       939 3.47729E+01-1.29495E+00 8.87761E+01
 -1       940-7.32000E+00-3.75582E+00 9.30162E+01
 -1       941-4.31894E+01-3.15687E+00 2.77927E+02
 -1       942-4.11282E+01-3.41108E+00 2.88733E+02
 -1       943-2.19622E+00-3.55257E+00 7.35642E+01
 -1       944 1.18230E+01-2.81593E+00 7.54612E+01
 -1       945 3.36287E+00-3.28673E+00 8.51822E+01
 -1       946 2.45027E+01-2.01033E+00 1.35314E+02
 -1       947-9.27868E+00-3.82049E+00 5.29266E+01
 -1       948 2.38833E+00-3.33622E+00 6.25904E+01
 -1       949 3.74518E+01-1.09958E+00 1.29657E+02
 -1       950-1.62382E+01-3.97661E+00 1.31257E+02
 -1       951-2.76273E+01-3.97865E+00 1.28726E+02
 -1       952 1.73601E+01-2.47616E+00 1.45090E+02
 -1       953 2.72451E+01-1.82439E+00 1.57156E+02
 -1       954 3.55511E+01-1.23859E+00 1.46477E+02
 -1       955 1.73601E+01-2.47616E+00 1.65090E+02
 -1       956 2.72451E+01-1.82439E+00 1.77156E+02
 -1       957 3.47729E+01-1.29495E+00 1.68776E+02
 -1       958-3.01814E+01-3.94740E+00 6.88168E+01
 -1       959-4.07782E+01-3.44643E+00 6.75437E+01
 -1       960-3.68963E+01-3.73226E+00 5.90267E+01
 -1       961-1.68764E+01-3.98418E+00 2.31158E+02
 -1       962-2.64852E+01-3.98729E+00 2.26805E+02
 -1       963-1.61181E+01-3.97505E+00 2.21023E+02
 -1       964 1.73601E+01-2.47616E+00 1.85090E+02
 -1       965 2.72451E+01-1.82439E+00 1.97156E+02
 -1       966 3.47729E+01-1.29495E+00 1.88776E+02
 -1       967 1.73601E+01-2.47616E+00 2.05090E+02
 -1       968 2.72861E+01-1.82158E+00 2.19748E+02
 -1       969 3.47729E+01-1.29495E+00 2.08776E+02
 -1       970-3.88611E+01-3.60908E+00 7.65772E+01
 -1       971 1.94285E+01-2.34419E+00 2.30823E+02
 -1       972 3.47729E+01-1.29495E+00 2.28776E+02
 -1       973 3.01804E+01-1.62127E+00 2.38785E+02
 -1       974 2.20182E+01-2.17551E+00 2.61065E+02
 -1       975 2.73301E+01-1.81857E+00 2.75958E+02
 -1       976-2.69967E+01-3.98377E+00 2.08618E+02
 -1       977 3.73826E+01-1.10468E+00 2.65152E+02
 -1       978-2.84436E+01-3.97064E+00 2.96988E+01
 -1       979-2.43460E+01-3.99707E+00 1.81099E+01
 -1       980-1.30422E+01-3.92058E+00 2.81094E+01
 -1       981-3.86784E+01-3.62219E+00 1.37092E+01
 -1       982-2.92688E+01-3.96074E+00 8.68832E+00
 -1       983-1.48403E+01-3.95569E+00 1.91451E+02
 -1       984-2.66357E+01-3.98631E+00 1.88988E+02
 -1       985-1.57260E+01-3.96962E+00 1.81242E+02
 -1       986-2.87296E+01-3.96742E+00 9.85132E+01
 -1       987-3.73944E+01-3.70453E+00 1.05552E+02
 -1       988-4.08718E+01-3.43717E+00 9.63104E+01
 -1       989-1.84934E+01-3.99750E+00 4.03180E+01
 -1       990-2.67435E+01-3.98558E+00 5.14677E+01
 -1       991-1.48404E+01-3.95569E+00 1.71451E+02
 -1       992-2.66357E+01-3.98631E+00 1.68988E+02
 -1       993-1.57260E+01-3.96962E+00 1.61242E+02
 -1       994-1.48404E+01-3.95569E+00 1.51451E+02
 -1       995-2.66362E+01-3.98631E+00 1.48988E+02
 -1       996-1.51466E+01-3.96077E+00 1.41855E+02
 -1       997 1.31855E+01-2.73431E+00 3.65502E+01
 -1       998-3.51590E+00-3.60920E+00 4.13285E+01
 -1       999 1.50890E+01-2.61805E+00 2.35375E+01
 -1      1000 2.80965E+01-1.76591E+00 1.21431E+01
 -1      1001 3.06616E+01-1.58757E+00 3.13708E+01
 -1      1002 1.47777E+01-2.63723E+00 2.84272E+02
 -1      1003 3.02719E+01-1.61488E+00 2.90134E+02
 -1      1004 5.85805E+00-3.15511E+00 2.57555E+02
 -1      1005-1.89810E+01-3.99976E+00 9.10051E+00
 -1      1006 6.78824E+00-3.10437E+00 1.19234E+01
 -1      1007-8.55523E+00-3.79753E+00 1.54204E+01
 -1      1008 1.63277E+01-2.54107E+00 2.44952E+02
 -1      1009 2.01467E+01-2.29778E+00 1.08394E+02
 -1      1010 3.43065E+01-1.32857E+00 1.12789E+02
 -1      1011 3.23253E+01-1.47018E+00 7.50638E+01
 -1      1012 1.85014E+01-2.40365E+00 6.52741E+01
 -1      1013-2.11806E+01-4.00159E+00 9.03538E+01
 -1      1014-3.20050E+01-3.91182E+00 8.86694E+01
 -1      1015-2.62697E+01-3.98863E+00 7.86891E+01
 -1      1016-9.60057E+00-3.83034E+00 2.55028E+02
 -1      1017 7.71449E-01-3.41576E+00 2.63002E+01
 -1      1018-3.01798E+01-3.94742E+00 2.90190E+02
 -1      1019-4.54096E+01-2.75830E+00 2.94913E+02
 -1      1020-3.16265E+01-3.92029E+00 4.13523E+01
 -1      1021 3.50494E+01-1.27496E+00 2.51645E+02
 -1      1022-2.44878E+01-3.99663E+00 2.51880E+02
 -1      1023-1.73219E+01-3.98870E+00 2.66036E+02
 -1      1024-2.89513E+01-3.96478E+00 2.60279E+02
 -1      1025-4.40789E+01-3.01656E+00 5.39117E+01
 -1      1026-1.98057E+01-4.00161E+00 2.78007E+02
 -1      1027-3.44582E+01-3.84012E+00 2.79889E+02
 -1      1028-2.97478E+01-3.95407E+00 2.69658E+02
 -1      1029-4.11075E+01-3.41323E+00 2.69867E+02
 -1      1030-3.73862E+01-3.70500E+00 2.62108E+02
 -1      1031-4.35757E+01-3.09863E+00 2.23108E+02
 -1      1032-3.82093E+01-3.65420E+00 2.14956E+02
 -1      1033-3.61051E+01-3.77204E+00 2.26216E+02
 -1      1034-3.82093E+01-3.65420E+00 1.94956E+02
 -1      1035-3.85036E+01-3.63439E+00 2.05271E+02
 -1      1036-3.82093E+01-3.65420E+00 1.74956E+02
 -1      1037-3.84252E+01-3.63976E+00 1.85349E+02
 -1      1038-2.81102E+01-3.97411E+00 2.38308E+02
 -1      1039-3.52116E+01-3.81126E+00 2.45795E+02
 -1      1040-3.82093E+01-3.65420E+00 1.54956E+02
 -1      1041-3.84252E+01-3.63976E+00 1.65349E+02
 -1      1042-3.82316E+01-3.65273E+00 1.34953E+02
 -1      1043-3.84330E+01-3.63923E+00 1.45337E+02
 -1      1044-3.99081E+01-3.52630E+00 2.37364E+02
 -1      1045-4.04180E+01-3.48082E+00 1.16302E+02
 -1      1046-3.93842E+01-3.56941E+00 1.25142E+02
 -1      1047-2.89661E+01-3.96459E+00 1.17088E+02
 -1      1048-2.73837E+01-3.98073E+00 2.17975E+02
 -1      1049-2.66395E+01-3.98628E+00 1.99558E+02
 -1      1050-2.66397E+01-3.98628E+00 1.79558E+02
 -1      1051-2.66397E+01-3.98628E+00 1.59558E+02
 -1      1052-2.65548E+01-3.98684E+00 1.39435E+02
 -1      1053-1.70511E+01-3.98603E+00 2.92223E+02
 -1      1054-4.41106E+01-3.01114E+00 2.44384E+02
 -1      1055-2.19464E+01-4.00122E+00 6.07193E+01
 -1      1056-1.73014E+01-3.98850E+00 7.12635E+01
 -1      1057-1.20279E+01-3.89699E+00 8.26388E+01
 -1      1058-3.91662E+01-3.58633E+00 2.53043E+02
 -1      1059-3.80562E+01-3.66415E+00 4.90410E+01
 -1      1060-4.30426E+01-3.17799E+00 4.31045E+01
 -1      1061-3.70765E+01-3.72248E+00 2.21146E+01
 -1      1062-4.11114E+01-3.41282E+00 3.27233E+01
 -1      1063-4.41499E+01-3.00437E+00 2.41565E+01
 -1      1064-4.19747E+01-3.31695E+00 8.58500E+01
 -1      1065-1.07362E+01-3.86324E+00 6.36832E+01
 -1      1066-1.43712E+01-3.94739E+00 2.42779E+02
 -1      1067-4.56743E+01-2.69820E+00 5.00000E+00
 -1      1068-4.79638E+01-1.97838E+00 2.92456E+02
 -1      1069-4.79638E+01-1.97838E+00 2.97456E+02
 -1      1070-4.31595E+01-3.16121E+00 2.97456E+02
 -1      1071 4.01346E+01-8.99940E-01 2.95067E+02
 -1      1072 4.01346E+01-8.99940E-01 2.85067E+02
 -1      1073 3.03677E+01-1.60817E+00 2.95067E+02
 -1      1074 3.90473E+01-9.81350E-01 6.07154E+00
 -1      1075 3.90473E+01-9.81350E-01 1.60715E+01
 -1      1076 2.92800E+01-1.68402E+00 6.07154E+00
 -1      1077-4.45481E+01-2.93295E+00 1.68546E+01
 -1      1078-4.45481E+01-2.93295E+00 1.18546E+01
 -1      1079-3.97852E+01-3.53673E+00 6.85461E+00
 -1      1080-4.73295E+01-2.22539E+00 2.20783E+01
 -1      1081-4.73295E+01-2.22539E+00 2.70783E+01
 -1      1082-3.78776E+01-3.67546E+00 1.79119E+01
 -1      1083-4.37326E+01-3.07383E+00 2.10573E+01
 -1      1084-4.06226E+01-3.46152E+00 2.31356E+01
 -1      1085-4.57867E+01-2.67164E+00 3.63617E+01
 -1      1086-4.57867E+01-2.67164E+00 3.13617E+01
 -1      1087-4.26341E+01-3.23410E+00 2.84399E+01
 -1      1088-4.67684E+01-2.40813E+00 4.15522E+01
 -1      1089-4.67684E+01-2.40813E+00 4.65522E+01
 -1      1090-4.20781E+01-3.30454E+00 3.79139E+01
 -1      1091-4.72936E+01-2.23797E+00 5.69558E+01
 -1      1092-4.72936E+01-2.23797E+00 5.19558E+01
 -1      1093-4.42313E+01-2.99021E+00 4.95205E+01
 -1      1094-4.10754E+01-3.41654E+00 5.14763E+01
 -1      1095-4.05538E+01-3.46808E+00 4.60728E+01
 -1      1096-4.56170E+01-2.71149E+00 6.87719E+01
 -1      1097-4.56170E+01-2.71149E+00 6.37719E+01
 -1      1098-4.36409E+01-3.08841E+00 5.95133E+01
 -1      1099-3.88388E+01-3.61070E+00 6.32852E+01
 -1      1100-4.04969E+01-3.47345E+00 5.64692E+01
 -1      1101-4.46410E+01-2.91549E+00 7.82886E+01
 -1      1102-4.46410E+01-2.91549E+00 7.32886E+01
 -1      1103-3.98201E+01-3.53379E+00 7.20605E+01
 -1      1104-4.62258E+01-2.56125E+00 8.79250E+01
 -1      1105-4.62258E+01-2.56125E+00 8.29250E+01
 -1      1106-4.04195E+01-3.48068E+00 8.12136E+01
 -1      1107-4.56647E+01-2.70044E+00 9.81552E+01
 -1      1108-4.56647E+01-2.70044E+00 9.31552E+01
 -1      1109-4.14235E+01-3.37968E+00 9.10802E+01
 -1      1110-4.38944E+01-3.04752E+00 1.07776E+02
 -1      1111-4.38944E+01-3.04752E+00 1.02776E+02
 -1      1112-3.91344E+01-3.58875E+00 1.00931E+02
 -1      1113-4.54337E+01-2.75296E+00 1.18151E+02
 -1      1114-4.54337E+01-2.75296E+00 1.13151E+02
 -1      1115-3.89072E+01-3.60572E+00 1.10927E+02
 -1      1116-4.49074E+01-2.86371E+00 1.27571E+02
 -1      1117-4.49074E+01-2.86371E+00 1.22571E+02
 -1      1118-3.99012E+01-3.52689E+00 1.20722E+02
 -1      1119-4.43206E+01-2.97441E+00 1.37476E+02
 -1      1120-4.43206E+01-2.97441E+00 1.32476E+02
 -1      1121-3.88080E+01-3.61293E+00 1.30047E+02
 -1      1122-4.44231E+01-2.95594E+00 1.47669E+02
 -1      1123-4.44231E+01-2.95594E+00 1.42669E+02
 -1      1124-3.83323E+01-3.64603E+00 1.40145E+02
 -1      1125-4.43092E+01-2.97643E+00 1.57478E+02
 -1      1126-4.43092E+01-2.97643E+00 1.52478E+02
 -1      1127-3.83212E+01-3.64678E+00 1.50147E+02
 -1      1128-4.44191E+01-2.95667E+00 1.67674E+02
 -1      1129-4.44191E+01-2.95667E+00 1.62674E+02
 -1      1130-3.83173E+01-3.64704E+00 1.60152E+02
 -1      1131-4.43092E+01-2.97643E+00 1.77478E+02
 -1      1132-4.43092E+01-2.97643E+00 1.72478E+02
 -1      1133-3.83173E+01-3.64704E+00 1.70152E+02
 -1      1134-4.44191E+01-2.95666E+00 1.87674E+02
 -1      1135-4.44191E+01-2.95666E+00 1.82674E+02
 -1      1136-3.83173E+01-3.64704E+00 1.80152E+02
 -1      1137-4.43092E+01-2.97643E+00 1.97478E+02
 -1      1138-4.43092E+01-2.97643E+00 1.92478E+02
 -1      1139-3.83173E+01-3.64704E+00 1.90152E+02
 -1      1140-4.44591E+01-2.94938E+00 2.07635E+02
 -1      1141-4.44591E+01-2.94938E+00 2.02635E+02
 -1      1142-3.83565E+01-3.64441E+00 2.00113E+02
 -1      1143-4.43092E+01-2.97643E+00 2.17478E+02
 -1      1144-4.43092E+01-2.97643E+00 2.12478E+02
 -1      1145-3.83565E+01-3.64441E+00 2.10113E+02
 -1      1146-4.70389E+01-2.32356E+00 2.26554E+02
 -1      1147-4.70389E+01-2.32356E+00 2.21554E+02
 -1      1148-4.08983E+01-3.43451E+00 2.19032E+02
 -1      1149-4.51741E+01-2.80905E+00 2.38682E+02
 -1      1150-4.51741E+01-2.80905E+00 2.33682E+02
 -1      1151-4.32383E+01-3.14970E+00 2.28108E+02
 -1      1152-3.98486E+01-3.53138E+00 2.24662E+02
 -1      1153-3.80078E+01-3.66725E+00 2.31790E+02
 -1      1154-4.73096E+01-2.23238E+00 2.47192E+02
 -1      1155-4.73096E+01-2.23238E+00 2.42192E+02
 -1      1156-4.20145E+01-3.31220E+00 2.40874E+02
 -1      1157-4.47964E+01-2.88561E+00 2.56521E+02
 -1      1158-4.47964E+01-2.88561E+00 2.51521E+02
 -1      1159-4.16448E+01-3.35517E+00 2.48714E+02
 -1      1160-4.57846E+01-2.67212E+00 2.69933E+02
 -1      1161-4.57846E+01-2.67212E+00 2.64933E+02
 -1      1162-3.92484E+01-3.58002E+00 2.65987E+02
 -1      1163-4.38902E+01-3.04821E+00 2.61054E+02
 -1      1164-3.82765E+01-3.64976E+00 2.57575E+02
 -1      1165-4.68429E+01-2.38544E+00 2.78963E+02
 -1      1166-4.68429E+01-2.38544E+00 2.73963E+02
 -1      1167-4.21497E+01-3.29582E+00 2.73897E+02
 -1      1168-4.57952E+01-2.66960E+00 2.89366E+02
 -1      1169-4.57952E+01-2.66960E+00 2.84366E+02
 -1      1170-4.21601E+01-3.29456E+00 2.83330E+02
 -1      1171-4.32776E+01-3.14391E+00 2.91823E+02
 -1      1172 4.03294E+01-8.85279E-01 2.56854E+01
 -1      1173 4.03294E+01-8.85279E-01 3.56854E+01
 -1      1174 2.93791E+01-1.67714E+00 2.17569E+01
 -1      1175 4.33022E+01-6.58622E-01 4.28838E+01
 -1      1176 4.33022E+01-6.58622E-01 5.28838E+01
 -1      1177 3.36356E+01-1.37675E+00 3.85692E+01
 -1      1178 4.11609E+01-8.22441E-01 6.75319E+01
 -1      1179 4.11609E+01-8.22441E-01 7.75319E+01
 -1      1180 4.00331E+01-9.07564E-01 5.82372E+01
 -1      1181 3.33393E+01-1.39795E+00 5.11210E+01
 -1      1182 3.11971E+01-1.54993E+00 6.57691E+01
 -1      1183 4.23843E+01-7.29209E-01 8.43880E+01
 -1      1184 4.23843E+01-7.29209E-01 9.43880E+01
 -1      1185 3.35491E+01-1.38294E+00 8.19199E+01
 -1      1186 4.21512E+01-7.47048E-01 1.06394E+02
 -1      1187 4.21512E+01-7.47048E-01 1.16394E+02
 -1      1188 3.95750E+01-9.41927E-01 9.95865E+01
 -1      1189 3.19627E+01-1.49588E+00 9.39745E+01
 -1      1190 3.17295E+01-1.51238E+00 1.05981E+02
 -1      1191 4.37234E+01-6.26050E-01 1.24829E+02
 -1      1192 4.37234E+01-6.26050E-01 1.34829E+02
 -1      1193 3.58792E+01-1.21473E+00 1.21223E+02
 -1      1194 4.27733E+01-6.99364E-01 1.43239E+02
 -1      1195 4.27733E+01-6.99364E-01 1.53239E+02
 -1      1196 3.65015E+01-1.16932E+00 1.38067E+02
 -1      1197 4.23843E+01-7.29209E-01 1.64388E+02
 -1      1198 4.23843E+01-7.29209E-01 1.74388E+02
 -1      1199 3.86218E+01-1.01302E+00 1.58578E+02
 -1      1200 3.13984E+01-1.53575E+00 1.51817E+02
 -1      1201 3.10092E+01-1.56315E+00 1.62966E+02
 -1      1202 4.23843E+01-7.29209E-01 1.84388E+02
 -1      1203 4.23843E+01-7.29209E-01 1.94388E+02
 -1      1204 3.86218E+01-1.01302E+00 1.78578E+02
 -1      1205 3.10092E+01-1.56315E+00 1.72966E+02
 -1      1206 3.10092E+01-1.56315E+00 1.82966E+02
 -1      1207 4.23843E+01-7.29209E-01 2.04388E+02
 -1      1208 4.23843E+01-7.29209E-01 2.14388E+02
 -1      1209 3.86218E+01-1.01302E+00 1.98578E+02
 -1      1210 3.10092E+01-1.56315E+00 1.92966E+02
 -1      1211 3.10092E+01-1.56315E+00 2.02966E+02
 -1      1212 4.23843E+01-7.29209E-01 2.24388E+02
 -1      1213 4.23843E+01-7.29209E-01 2.34388E+02
 -1      1214 3.86423E+01-1.01150E+00 2.19874E+02
 -1      1215 3.10298E+01-1.56171E+00 2.14262E+02
 -1      1216 3.10298E+01-1.56171E+00 2.24262E+02
 -1      1217 4.25225E+01-7.18617E-01 2.45823E+02
 -1      1218 4.25225E+01-7.18617E-01 2.55823E+02
 -1      1219 4.00889E+01-9.03376E-01 2.39392E+02
 -1      1220 3.24767E+01-1.45942E+00 2.33780E+02
 -1      1221 3.26150E+01-1.44960E+00 2.45215E+02
 -1      1222 4.36887E+01-6.28733E-01 2.62576E+02
 -1      1223 4.36887E+01-6.28733E-01 2.72576E+02
 -1      1224 3.62160E+01-1.19018E+00 2.58399E+02
 -1      1225 3.86642E+01-1.00987E+00 2.77979E+02
 -1      1226 3.23568E+01-1.46794E+00 2.70555E+02
 -1      1227 2.88010E+01-1.71725E+00 2.83046E+02
 -1      1228-2.82309E+01-3.97289E+00 4.34416E+00
 -1      1229-3.50845E+01-3.81639E+00 4.34416E+00
 -1      1230-3.39758E+01-3.85677E+00 1.11988E+01
 -1      1231-2.30870E+01-3.99993E+00 4.55026E+00
 -1      1232-1.38112E+01-3.93668E+00 4.55026E+00
 -1      1233-2.41249E+01-3.99770E+00 8.89442E+00
 -1      1234 8.85401E+00-2.98870E+00 5.96168E+00
 -1      1235-9.25329E-01-3.49552E+00 5.96168E+00
 -1      1236-8.59904E+00-3.79895E+00 7.71020E+00
 -1      1237-1.37674E+01-3.93581E+00 1.22605E+01
 -1      1238-8.81545E-01-3.49352E+00 1.36719E+01
 -1      1239 1.95094E+01-2.33897E+00 6.07154E+00
 -1      1240 1.74446E+01-2.47082E+00 1.20332E+01
 -1      1241-2.86864E+01-3.96792E+00 2.95095E+02
 -1      1242-3.55398E+01-3.79751E+00 2.95095E+02
 -1      1243-3.56589E+01-3.79234E+00 2.89461E+02
 -1      1244-4.10094E+01-3.42329E+00 2.94366E+02
 -1      1245-2.21221E+01-4.00109E+00 2.96112E+02
 -1      1246-1.28465E+01-3.91624E+00 2.96112E+02
 -1      1247-2.36155E+01-3.99894E+00 2.91207E+02
 -1      1248-5.92951E+00-3.70527E+00 2.93431E+02
 -1      1249 3.85292E+00-3.26142E+00 2.93431E+02
 -1      1250-1.01323E+01-3.84611E+00 2.89542E+02
 -1      1251 2.05974E+01-2.26851E+00 2.95067E+02
 -1      1252 5.78277E+00-3.15918E+00 2.85567E+02
 -1      1253 1.28487E+01-2.75462E+00 2.92136E+02
 -1      1254 2.25258E+01-2.14202E+00 2.87203E+02
 -1      1255 1.41802E+00-3.38436E+00 2.71388E+02
 -1      1256 2.89997E+00-3.31038E+00 2.79858E+02
 -1      1257-4.69924E+00-3.65756E+00 2.78391E+02
 -1      1258-1.60771E-01-3.46008E+00 2.63738E+02
 -1      1259 7.43627E+00-3.06851E+00 2.65205E+02
 -1      1260-1.15090E+01-3.88392E+00 2.82434E+02
 -1      1261-1.29925E+01-3.91949E+00 2.73964E+02
 -1      1262-1.86924E+00-3.53813E+00 2.56291E+02
 -1      1263-7.89116E+00-3.77549E+00 2.62474E+02
 -1      1264-1.34608E+01-3.92954E+00 2.60532E+02
 -1      1265-1.17510E+01-3.89009E+00 2.67978E+02
 -1      1266-1.85638E+01-3.99788E+00 2.72022E+02
 -1      1267 1.18962E+01-2.81158E+00 2.78564E+02
 -1      1268 1.55171E+01-2.59155E+00 2.66960E+02
 -1      1269 2.46742E+01-1.99881E+00 2.68511E+02
 -1      1270 1.81738E+01-2.42454E+00 2.74407E+02
 -1      1271 1.39395E+01-2.68856E+00 2.59310E+02
 -1      1272 2.10546E+01-2.23870E+00 2.80115E+02
 -1      1273-1.84284E+01-3.99713E+00 2.85115E+02
 -1      1274-1.54516E+01-3.96555E+00 2.07247E+02
 -1      1275-1.10165E+01-3.87090E+00 2.08566E+02
 -1      1276-1.21273E+01-3.89942E+00 2.13100E+02
 -1      1277-2.17797E+01-4.00133E+00 2.10200E+02
 -1      1278-2.06687E+01-4.00174E+00 2.05666E+02
 -1      1279-1.19050E+01-3.89395E+00 2.17721E+02
 -1      1280-1.63404E+01-3.97791E+00 2.16402E+02
 -1      1281-2.19732E+01-4.00121E+00 2.14878E+02
 -1      1282-2.17509E+01-4.00134E+00 2.19499E+02
 -1      1283-2.71902E+01-3.98229E+00 2.13297E+02
 -1      1284-6.58920E+00-3.72971E+00 2.03336E+02
 -1      1285-3.26686E+00-3.59873E+00 2.09189E+02
 -1      1286-8.91261E+00-3.80901E+00 1.98832E+02
 -1      1287-1.16414E+00-3.50643E+00 1.99455E+02
 -1      1288-9.16236E+00-3.81687E+00 1.93201E+02
 -1      1289-1.45904E+01-3.95135E+00 1.97082E+02
 -1      1290-2.68181E+01-3.98506E+00 2.04088E+02
 -1      1291-2.04900E+01-4.00178E+00 2.01136E+02
 -1      1292-2.07399E+01-4.00172E+00 1.95505E+02
 -1      1293 5.21057E-01-3.42778E+00 2.16337E+02
 -1      1294 1.86169E+00-3.36249E+00 2.21255E+02
 -1      1295-6.35164E+00-3.72100E+00 2.19338E+02
 -1      1296 4.94480E+00-3.20406E+00 2.11106E+02
 -1      1297-1.05632E+01-3.85842E+00 2.22640E+02
 -1      1298 1.58496E+01-2.57089E+00 1.26962E+02
 -1      1299 7.31072E+00-3.07549E+00 1.23705E+02
 -1      1300 1.41329E+01-2.67676E+00 1.19148E+02
 -1      1301 2.35860E+01-2.07165E+00 1.28860E+02
 -1      1302 1.67666E+01-2.51356E+00 1.33416E+02
 -1      1303 1.28712E+01-2.75327E+00 1.12143E+02
 -1      1304 2.14080E+01-2.21558E+00 1.15400E+02
 -1      1305 3.00615E+01-1.62958E+00 1.26031E+02
 -1      1306 3.09780E+01-1.56535E+00 1.32486E+02
 -1      1307 2.84885E+01-1.73886E+00 1.17597E+02
 -1      1308 2.72275E+01-1.82560E+00 1.10591E+02
 -1      1309 1.14259E+00-3.39780E+00 1.26377E+02
 -1      1310-5.75530E-01-3.47941E+00 1.18563E+02
 -1      1311-5.72638E+00-3.69758E+00 1.27536E+02
 -1      1312 2.16248E+00-3.34753E+00 1.32678E+02
 -1      1313 3.63959E+00-3.27247E+00 1.37983E+02
 -1      1314-3.22822E+00-3.59709E+00 1.39143E+02
 -1      1315 7.80719E+00-3.04781E+00 1.44769E+02
 -1      1316 1.31945E+01-2.73377E+00 1.38304E+02
 -1      1317 2.09317E+01-2.24673E+00 1.40202E+02
 -1      1318-5.61231E+00-3.69323E+00 1.13479E+02
 -1      1319 5.58490E-01-3.42599E+00 1.10807E+02
 -1      1320 2.88447E+00-3.31117E+00 1.02493E+02
 -1      1321 7.91853E+00-3.04157E+00 1.07577E+02
 -1      1322 1.51956E+01-2.61146E+00 1.03829E+02
 -1      1323-2.08432E+01-4.00169E+00 1.09134E+02
 -1      1324-2.11916E+01-4.00158E+00 1.04116E+02
 -1      1325-1.65057E+01-3.97994E+00 1.05932E+02
 -1      1326-2.25618E+01-4.00066E+00 1.14019E+02
 -1      1327-2.72477E+01-3.98184E+00 1.12204E+02
 -1      1328-1.06647E+01-3.86126E+00 1.03319E+02
 -1      1329-1.03165E+01-3.85142E+00 1.08337E+02
 -1      1330-1.14514E+01-3.88242E+00 1.16092E+02
 -1      1331-1.20307E+01-3.89706E+00 1.21135E+02
 -1      1332-1.67369E+01-3.98263E+00 1.15992E+02
 -1      1333-2.31413E+01-3.99984E+00 1.19061E+02
 -1      1334-2.71294E+01-3.98276E+00 1.02916E+02
 -1      1335-2.27918E+01-4.00037E+00 9.97134E+01
 -1      1336-3.14633E+01-3.92376E+00 1.06435E+02
 -1      1337-3.30634E+01-3.88468E+00 1.02032E+02
 -1      1338-3.31816E+01-3.88131E+00 1.11320E+02
 -1      1339-1.20863E+01-3.89842E+00 9.69649E+01
 -1      1340-5.89888E+00-3.70411E+00 9.93699E+01
 -1      1341-1.42490E+01-3.94513E+00 9.16850E+01
 -1      1342-1.90173E+01-3.99990E+00 9.56337E+01
 -1      1343-2.49551E+01-3.99500E+00 9.44335E+01
 -1      1344-7.01298E-01-3.48522E+00 2.33811E+02
 -1      1345 1.91842E+00-3.35968E+00 2.38596E+02
 -1      1346-3.54446E+00-3.61039E+00 2.39937E+02
 -1      1347-5.58774E+00-3.69229E+00 2.29704E+02
 -1      1348-1.24114E-01-3.45836E+00 2.28363E+02
 -1      1349-1.02676E+01-3.85002E+00 2.38966E+02
 -1      1350-7.64614E+00-3.76713E+00 2.43751E+02
 -1      1351-1.15199E+01-3.88420E+00 2.33155E+02
 -1      1352-1.09422E+01-3.86889E+00 2.27707E+02
 -1      1353-1.56238E+01-3.96813E+00 2.36969E+02
 -1      1354 7.70371E+00-3.05360E+00 2.44837E+02
 -1      1355 1.05450E+01-2.89119E+00 2.38711E+02
 -1      1356 6.74580E+00-3.10670E+00 2.25362E+02
 -1      1357 1.20958E+01-2.79970E+00 2.31647E+02
 -1      1358 1.40802E+01-2.67997E+00 2.24539E+02
 -1      1359 1.78781E+01-2.44335E+00 2.37887E+02
 -1      1360 2.46725E+00-3.33226E+00 2.51139E+02
 -1      1361 1.10935E+01-2.85905E+00 2.51253E+02
 -1      1362-5.26175E+00-3.67971E+00 2.49876E+02
 -1      1363-1.19857E+01-3.89595E+00 2.48904E+02
 -1      1364 1.72432E+01-2.48354E+00 4.77538E+01
 -1      1365 2.68810E+01-1.84929E+00 4.97530E+01
 -1      1366 2.04323E+01-2.27925E+00 5.44752E+01
 -1      1367 1.19888E+01-2.80607E+00 4.45131E+01
 -1      1368 1.84396E+01-2.40760E+00 3.97909E+01
 -1      1369 1.46471E+01-2.64526E+00 5.88751E+01
 -1      1370 2.42857E+01-2.02489E+00 6.08743E+01
 -1      1371 7.59998E-01-3.41632E+00 5.27013E+01
 -1      1372 6.59072E+00-3.11521E+00 5.75332E+01
 -1      1373-3.44400E+00-3.60619E+00 5.77585E+01
 -1      1374-6.39700E+00-3.72267E+00 4.71276E+01
 -1      1375 3.63965E+00-3.27247E+00 4.69023E+01
 -1      1376 1.04464E+01-2.89694E+00 6.39323E+01
 -1      1377 4.83680E+00-3.20980E+00 3.89393E+01
 -1      1378 3.01517E+01-1.62328E+00 4.43996E+01
 -1      1379 2.71773E+01-1.82903E+00 3.72012E+01
 -1      1380 2.19249E+01-2.18165E+00 3.39605E+01
 -1      1381 2.54142E+01-1.94895E+00 7.01689E+01
 -1      1382 9.26071E+00-2.96547E+00 2.04524E+02
 -1      1383 1.30459E+01-2.74274E+00 2.11672E+02
 -1      1384 2.23236E+01-2.15538E+00 2.12419E+02
 -1      1385 1.80101E+01-2.43496E+00 2.19001E+02
 -1      1386 2.33576E+01-2.08686E+00 2.25286E+02
 -1      1387-1.64973E+01-3.97984E+00 2.26091E+02
 -1      1388 2.35011E+00-3.33814E+00 1.94797E+02
 -1      1389 4.67173E+00-3.21853E+00 1.99301E+02
 -1      1390-2.61858E+00-3.57100E+00 1.89699E+02
 -1      1391 3.21782E+00-3.29417E+00 1.89545E+02
 -1      1392-8.29395E+00-3.78897E+00 1.87949E+02
 -1      1393 1.27729E+01-2.75917E+00 1.99866E+02
 -1      1394 7.80719E+00-3.04781E+00 1.84769E+02
 -1      1395 1.27729E+01-2.75917E+00 1.89866E+02
 -1      1396 2.23030E+01-2.15674E+00 1.91123E+02
 -1      1397 1.77167E+01-2.45359E+00 1.95900E+02
 -1      1398 2.23030E+01-2.15674E+00 2.01123E+02
 -1      1399-1.67773E+01-3.98309E+00 1.26145E+02
 -1      1400-1.14918E+01-3.88347E+00 1.26246E+02
 -1      1401-1.04710E+01-3.85582E+00 1.32547E+02
 -1      1402-2.19327E+01-4.00123E+00 1.29991E+02
 -1      1403-2.24718E+01-4.00077E+00 1.24880E+02
 -1      1404-2.82967E+01-3.97221E+00 1.22907E+02
 -1      1405 1.33059E+00-3.38863E+00 1.74280E+02
 -1      1406 3.21782E+00-3.29417E+00 1.79545E+02
 -1      1407-3.63844E+00-3.61432E+00 1.79182E+02
 -1      1408-3.63844E+00-3.61432E+00 1.69182E+02
 -1      1409 3.21782E+00-3.29417E+00 1.69545E+02
 -1      1410-1.06254E+01-3.86016E+00 1.77579E+02
 -1      1411-8.73661E+00-3.80339E+00 1.82845E+02
 -1      1412-1.01828E+01-3.84757E+00 1.72684E+02
 -1      1413-8.29401E+00-3.78897E+00 1.67949E+02
 -1      1414-1.52832E+01-3.96295E+00 1.76346E+02
 -1      1415 1.27729E+01-2.75917E+00 1.79866E+02
 -1      1416 7.80719E+00-3.04781E+00 1.64769E+02
 -1      1417 1.27729E+01-2.75917E+00 1.69866E+02
 -1      1418 2.23030E+01-2.15674E+00 1.71123E+02
 -1      1419 1.77167E+01-2.45359E+00 1.75900E+02
 -1      1420 2.23030E+01-2.15674E+00 1.81123E+02
 -1      1421-1.52831E+01-3.96294E+00 1.86346E+02
 -1      1422 1.46421E+00-3.38209E+00 9.61396E+01
 -1      1423 1.33059E+00-3.38863E+00 1.54280E+02
 -1      1424 3.21782E+00-3.29417E+00 1.59545E+02
 -1      1425-3.63844E+00-3.61432E+00 1.59182E+02
 -1      1426-3.63844E+00-3.61432E+00 1.49182E+02
 -1      1427 3.21782E+00-3.29417E+00 1.49545E+02
 -1      1428-1.06254E+01-3.86016E+00 1.57579E+02
 -1      1429-8.73661E+00-3.80339E+00 1.62845E+02
 -1      1430-1.01828E+01-3.84757E+00 1.52684E+02
 -1      1431-8.29401E+00-3.78897E+00 1.47949E+02
 -1      1432-1.52832E+01-3.96295E+00 1.56346E+02
 -1      1433 1.27729E+01-2.75917E+00 1.59866E+02
 -1      1434 1.27729E+01-2.75917E+00 1.49866E+02
 -1      1435 2.23030E+01-2.15674E+00 1.51123E+02
 -1      1436 1.77167E+01-2.45359E+00 1.55900E+02
 -1      1437 2.23030E+01-2.15674E+00 1.61123E+02
 -1      1438-1.52832E+01-3.96295E+00 1.66346E+02
 -1      1439 2.46424E+01-2.00096E+00 9.30121E+01
 -1      1440 1.96996E+01-2.32670E+00 9.92179E+01
 -1      1441 1.51882E+01-2.61192E+00 9.30571E+01
 -1      1442 2.74533E+01-1.81012E+00 8.78136E+01
 -1      1443 6.80352E+00-3.10352E+00 9.22226E+01
 -1      1444 1.17490E+01-2.82033E+00 8.60167E+01
 -1      1445 2.62292E+01-1.89371E+00 8.09575E+01
 -1      1446 7.59339E+00-3.05976E+00 8.03217E+01
 -1      1447 1.59777E+01-2.56292E+00 8.11562E+01
 -1      1448 2.20760E+01-2.17170E+00 7.52625E+01
 -1      1449 2.46498E+01-2.00046E+00 1.03784E+02
 -1      1450-1.97761E+00-3.54293E+00 8.90992E+01
 -1      1451-9.92541E+00-3.84005E+00 1.37846E+02
 -1      1452-8.44706E+00-3.79400E+00 1.43151E+02
 -1      1453-1.56924E+01-3.96914E+00 1.36556E+02
 -1      1454-1.49935E+01-3.95826E+00 1.46653E+02
 -1      1455-9.67374E+00-3.83255E+00 8.78275E+01
 -1      1456-4.33043E+00-3.64274E+00 8.39105E+01
 -1      1457-1.66038E+01-3.98110E+00 8.64963E+01
 -1      1458-3.77966E+01-3.68049E+00 2.84311E+02
 -1      1459-3.88320E+01-3.61120E+00 2.78908E+02
 -1      1460-3.77862E+01-3.68113E+00 2.74878E+02
 -1      1461-3.23192E+01-3.90431E+00 2.85040E+02
 -1      1462 4.81479E+00-3.21096E+00 7.45127E+01
 -1      1463 5.83570E-01-3.42479E+00 7.93732E+01
 -1      1464 9.62251E-02-3.44798E+00 6.80773E+01
 -1      1465 7.10625E+00-3.08682E+00 6.90258E+01
 -1      1466-7.11120E+00-3.74846E+00 7.81015E+01
 -1      1467-6.46557E+00-3.72519E+00 6.86237E+01
 -1      1468-4.17243E+00-3.63632E+00 6.31368E+01
 -1      1469-9.74690E+00-3.83474E+00 7.24138E+01
 -1      1470-1.46645E+01-3.95265E+00 7.69511E+01
 -1      1471-1.40185E+01-3.94075E+00 6.74734E+01
 -1      1472 1.51624E+01-2.61351E+00 7.03676E+01
 -1      1473 3.00274E+01-1.63196E+00 1.40896E+02
 -1      1474 2.64570E+01-1.87820E+00 1.45784E+02
 -1      1475-1.00074E+01-3.84246E+00 5.83049E+01
 -1      1476-1.38854E+01-3.93815E+00 4.66223E+01
 -1      1477-1.80104E+01-3.99442E+00 5.21972E+01
 -1      1478-2.26185E+01-4.00060E+00 4.58929E+01
 -1      1479-1.10028E+01-3.87053E+00 4.08233E+01
 -1      1480-1.56117E+01-3.96796E+00 5.68230E+01
 -1      1481-2.43450E+01-3.99707E+00 5.60935E+01
 -1      1482-1.63407E+01-3.97791E+00 6.22013E+01
 -1      1483-2.13965E+01-4.00151E+00 1.35346E+02
 -1      1484-2.70910E+01-3.98306E+00 1.34080E+02
 -1      1485-2.08507E+01-4.00169E+00 1.40645E+02
 -1      1486-3.29314E+01-3.88836E+00 1.31839E+02
 -1      1487-3.35087E+01-3.87162E+00 1.26934E+02
 -1      1488-3.23953E+01-3.90242E+00 1.37194E+02
 -1      1489-3.41780E+01-3.84996E+00 1.21115E+02
 -1      1490 2.60678E+01-1.90467E+00 1.66933E+02
 -1      1491 2.60678E+01-1.90467E+00 1.86933E+02
 -1      1492-3.54842E+01-3.79990E+00 6.81802E+01
 -1      1493-3.35398E+01-3.87066E+00 6.39217E+01
 -1      1494-3.45234E+01-3.83777E+00 7.26970E+01
 -1      1495-2.60640E+01-3.98982E+00 6.47681E+01
 -1      1496-2.94226E+01-3.95867E+00 5.98730E+01
 -1      1497-2.82256E+01-3.97294E+00 7.37529E+01
 -1      1498-3.25679E+01-3.89804E+00 7.76332E+01
 -1      1499-2.17856E+01-4.00132E+00 7.49763E+01
 -1      1500-2.37415E+01-3.99866E+00 7.00401E+01
 -1      1501-1.96239E+01-4.00140E+00 6.59914E+01
 -1      1502-3.18212E+01-3.91601E+00 5.52472E+01
 -1      1503-3.74763E+01-3.69975E+00 5.40339E+01
 -1      1504-3.24018E+01-3.90226E+00 5.02544E+01
 -1      1505-2.16808E+01-4.00138E+00 2.28982E+02
 -1      1506-2.13017E+01-4.00154E+00 2.23914E+02
 -1      1507-2.24933E+01-4.00074E+00 2.34733E+02
 -1      1508-2.72977E+01-3.98143E+00 2.32557E+02
 -1      1509-2.12407E+01-4.00157E+00 2.40544E+02
 -1      1510-2.69345E+01-3.98422E+00 2.22390E+02
 -1      1511-3.21085E+01-3.90939E+00 2.32262E+02
 -1      1512-3.12962E+01-3.92720E+00 2.26511E+02
 -1      1513-3.17453E+01-3.91770E+00 2.22096E+02
 -1      1514 2.60678E+01-1.90467E+00 2.06933E+02
 -1      1515 2.71017E+01-1.83421E+00 2.29800E+02
 -1      1516-2.91375E+01-3.96244E+00 8.36793E+01
 -1      1517-3.54348E+01-3.80199E+00 8.26233E+01
 -1      1518-3.69960E+01-3.72688E+00 8.72597E+01
 -1      1519 2.48049E+01-1.99003E+00 2.34804E+02
 -1      1520 2.32549E+01-2.09369E+00 2.41868E+02
 -1      1521 2.56901E+01-1.93029E+00 2.48298E+02
 -1      1522 2.97014E+01-1.65471E+00 2.63108E+02
 -1      1523 2.85345E+01-1.73568E+00 2.56355E+02
 -1      1524 1.91731E+01-2.36062E+00 2.53008E+02
 -1      1525-3.26050E+01-3.89708E+00 2.11787E+02
 -1      1526-3.27524E+01-3.89321E+00 2.06944E+02
 -1      1527-3.27985E+01-3.89197E+00 2.16466E+02
 -1      1528-3.25738E+01-3.89789E+00 2.02414E+02
 -1      1529-2.63948E+01-3.98786E+00 2.39044E+01
 -1      1530-1.86939E+01-3.99853E+00 2.31096E+01
 -1      1531-2.07430E+01-4.00172E+00 2.89041E+01
 -1      1532-3.27613E+01-3.89297E+00 2.59067E+01
 -1      1533-3.07126E+01-3.93834E+00 2.01123E+01
 -1      1534-1.57676E+01-3.97022E+00 3.42137E+01
 -1      1535-2.34685E+01-3.99924E+00 3.50084E+01
 -1      1536-2.50601E+01-3.99460E+00 4.08352E+01
 -1      1537-3.00351E+01-3.94972E+00 3.55256E+01
 -1      1538-3.47827E+01-3.82813E+00 3.12110E+01
 -1      1539-3.63735E+01-3.75910E+00 3.70378E+01
 -1      1540-3.90958E+01-3.59168E+00 2.74189E+01
 -1      1541-1.07986E+01-3.86496E+00 2.17649E+01
 -1      1542-1.64496E+01-3.97926E+00 1.67652E+01
 -1      1543-2.68074E+01-3.98513E+00 1.33991E+01
 -1      1544-3.15146E+01-3.92268E+00 1.59096E+01
 -1      1545-2.16635E+01-4.00139E+00 1.36052E+01
 -1      1546-8.27828E+00-3.78845E+00 3.47189E+01
 -1      1547-6.13372E+00-3.71292E+00 2.72048E+01
 -1      1548-1.37207E+00-3.51585E+00 3.38143E+01
 -1      1549-3.89114E+00-3.62479E+00 2.08603E+01
 -1      1550-2.07380E+01-4.00172E+00 1.90220E+02
 -1      1551-2.11808E+01-4.00159E+00 1.85115E+02
 -1      1552-2.66376E+01-3.98630E+00 1.94273E+02
 -1      1553-2.66377E+01-3.98630E+00 1.84273E+02
 -1      1554-2.11828E+01-4.00159E+00 1.80400E+02
 -1      1555-3.24246E+01-3.90169E+00 1.91972E+02
 -1      1556-3.25326E+01-3.89895E+00 1.87169E+02
 -1      1557-3.24265E+01-3.90164E+00 1.97257E+02
 -1      1558-3.25346E+01-3.89890E+00 1.82453E+02
 -1      1559-2.07400E+01-4.00172E+00 1.75504E+02
 -1      1560-3.48054E+01-3.82727E+00 9.74118E+01
 -1      1561-3.03674E+01-3.94434E+00 9.35913E+01
 -1      1562-3.64424E+01-3.75569E+00 9.24899E+01
 -1      1563-2.65930E+01-3.98659E+00 8.95116E+01
 -1      1564-3.46961E+01-3.83140E+00 1.16695E+02
 -1      1565-2.91851E+01-3.96183E+00 4.64100E+01
 -1      1566-3.48426E+01-3.82585E+00 4.51967E+01
 -1      1567-2.07380E+01-4.00172E+00 1.70219E+02
 -1      1568-2.11808E+01-4.00159E+00 1.65115E+02
 -1      1569-2.66377E+01-3.98630E+00 1.74273E+02
 -1      1570-2.66377E+01-3.98630E+00 1.64273E+02
 -1      1571-2.11828E+01-4.00159E+00 1.60400E+02
 -1      1572-3.24245E+01-3.90169E+00 1.71972E+02
 -1      1573-3.25326E+01-3.89895E+00 1.67169E+02
 -1      1574-3.24265E+01-3.90164E+00 1.77257E+02
 -1      1575-3.25346E+01-3.89890E+00 1.62453E+02
 -1      1576-2.07400E+01-4.00172E+00 1.55504E+02
 -1      1577-2.07383E+01-4.00172E+00 1.50219E+02
 -1      1578-2.08914E+01-4.00167E+00 1.45421E+02
 -1      1579-2.66379E+01-3.98629E+00 1.54273E+02
 -1      1580-2.65955E+01-3.98658E+00 1.44212E+02
 -1      1581-3.24248E+01-3.90168E+00 1.51972E+02
 -1      1582-3.25368E+01-3.89884E+00 1.47163E+02
 -1      1583-3.24265E+01-3.90164E+00 1.57257E+02
 -1      1584-3.24961E+01-3.89988E+00 1.42386E+02
 -1      1585 6.97949E+00-3.09383E+00 3.14252E+01
 -1      1586 1.41372E+01-2.67649E+00 3.00438E+01
 -1      1587 2.28764E+01-2.11882E+00 2.74541E+01
 -1      1588 7.93156E+00-3.04084E+00 2.49189E+01
 -1      1589 2.15935E+01-2.20342E+00 1.78403E+01
 -1      1590 1.09390E+01-2.86813E+00 1.77304E+01
 -1      1591 3.78011E+00-3.26520E+00 1.91118E+01
 -1      1592-2.37252E+01-3.99869E+00 8.45215E+01
 -1      1593-1.91486E+01-4.00034E+00 8.06639E+01
 -1      1594-1.70434E+01-3.98595E+00 2.53454E+02
 -1      1595-2.09049E+01-4.00167E+00 2.58958E+02
 -1      1596-1.94294E+01-4.00107E+00 2.47330E+02
 -1      1597-2.49928E+01-3.99486E+00 2.84099E+02
 -1      1598-2.71324E+01-3.98274E+00 2.78948E+02
 -1      1599-3.73436E+01-3.70745E+00 4.22284E+01
 -1      1600-2.31367E+01-3.99985E+00 2.63158E+02
 -1      1601-2.67196E+01-3.98574E+00 2.56080E+02
 -1      1602-3.40614E+01-3.85391E+00 2.56661E+02
 -1      1603-3.18298E+01-3.91582E+00 2.52461E+02
 -1      1604-2.62990E+01-3.98845E+00 2.45094E+02
 -1      1605-2.98505E+01-3.95255E+00 2.48837E+02
 -1      1606-3.16615E+01-3.91953E+00 2.42051E+02
 -1      1607-3.71899E+01-3.71618E+00 2.49419E+02
 -1      1608-2.35349E+01-3.99911E+00 2.67847E+02
 -1      1609-2.93496E+01-3.95966E+00 2.64969E+02
 -1      1610-2.47768E+01-3.99566E+00 2.73833E+02
 -1      1611-3.35682E+01-3.86979E+00 2.65883E+02
 -1      1612-3.31701E+01-3.88164E+00 2.61193E+02
 -1      1613-3.21033E+01-3.90952E+00 2.74774E+02
 -1      1614-3.54327E+01-3.80208E+00 2.69763E+02
 -1      1615-3.71575E+01-3.71799E+00 2.20586E+02
 -1      1616-3.40127E+01-3.85554E+00 2.37836E+02
 -1      1617-3.75614E+01-3.69473E+00 2.41579E+02
 -1      1618-3.96722E+01-3.54614E+00 2.45089E+02
 -1      1619 8.98867E-01 1.53227E+00 0.00000E+00
 -1      1620-1.82316E+01 1.77478E+00 0.00000E+00
 -1      1621-3.41895E+01 1.73346E+00 0.00000E+00
 -1      1622-4.13562E+01 9.77429E-01 0.00000E+00
 -1      1623 4.02353E+01-7.37833E-01 0.00000E+00
 -1      1624 3.04071E+01 9.80982E-01 0.00000E+00
 -1      1625-3.11860E+01 4.71407E+00 0.00000E+00
 -1      1626-3.80056E+01 3.56180E+00 0.00000E+00
 -1      1627-3.75401E+01-8.50910E-01 0.00000E+00
 -1      1628-1.37791E+01 4.75385E+00 0.00000E+00
 -1      1629-2.32070E+01 4.73473E+00 0.00000E+00
 -1      1630-2.27123E+01-1.10374E+00 0.00000E+00
 -1      1631-2.76877E+01 1.85620E+00 0.00000E+00
 -1      1632-3.06912E+01-1.12440E+00 0.00000E+00
 -1      1633 5.73133E+00 3.83926E+00 0.00000E+00
 -1      1634-4.21383E+00 4.63260E+00 0.00000E+00
 -1      1635-3.87199E+00-1.13405E+00 0.00000E+00
 -1      1636-8.98469E+00 1.96628E+00 0.00000E+00
 -1      1637-1.34372E+01-1.01280E+00 0.00000E+00
 -1      1638 2.06352E+01 3.47078E-01 0.00000E+00
 -1      1639 1.07417E+01 1.63849E+00 0.00000E+00
 -1      1640 5.90921E+00-6.68498E-01 0.00000E+00
 -1      1641 8.98867E-01 1.53227E+00 3.00000E+02
 -1      1642-1.82316E+01 1.77478E+00 3.00000E+02
 -1      1643-3.41895E+01 1.73346E+00 3.00000E+02
 -1      1644-4.13562E+01 9.77429E-01 3.00000E+02
 -1      1645 4.02353E+01-7.37833E-01 3.00000E+02
 -1      1646 3.04071E+01 9.80982E-01 3.00000E+02
 -1      1647-3.80056E+01 3.56180E+00 3.00000E+02
 -1      1648-3.11860E+01 4.71407E+00 3.00000E+02
 -1      1649-3.75401E+01-8.50910E-01 3.00000E+02
 -1      1650-2.32070E+01 4.73473E+00 3.00000E+02
 -1      1651-1.37791E+01 4.75385E+00 3.00000E+02
 -1      1652-2.76877E+01 1.85620E+00 3.00000E+02
 -1      1653-2.27123E+01-1.10374E+00 3.00000E+02
 -1      1654-3.06912E+01-1.12440E+00 3.00000E+02
 -1      1655-4.21383E+00 4.63260E+00 3.00000E+02
 -1      1656 5.73133E+00 3.83926E+00 3.00000E+02
 -1      1657-8.98469E+00 1.96628E+00 3.00000E+02
 -1      1658-3.87199E+00-1.13405E+00 3.00000E+02
 -1      1659-1.34372E+01-1.01280E+00 3.00000E+02
 -1      1660 1.07417E+01 1.63849E+00 3.00000E+02
 -1      1661 2.06352E+01 3.47078E-01 3.00000E+02
 -1      1662 5.90921E+00-6.68498E-01 3.00000E+02
 -1      1663 4.37295E+01-4.86890E-01 1.24829E+02
 -1      1664 3.47260E+01 1.10470E+00 1.22291E+02
 -1      1665 3.47262E+01 1.10467E+00 1.32291E+02
 -1      1666 4.37295E+01-4.86890E-01 1.34829E+02
 -1      1667 3.37758E+01 1.03516E+00 1.40701E+02
 -1      1668 3.37758E+01 1.03516E+00 1.50701E+02
 -1      1669 4.27792E+01-5.56396E-01 1.43239E+02
 -1      1670 4.36949E+01-4.89441E-01 2.62576E+02
 -1      1671 3.88666E+01 4.11532E-01 2.68412E+02
 -1      1672 3.33770E+01 1.30351E+00 2.64893E+02
 -1      1673 3.31782E+01 1.03942E+00 8.17193E+01
 -1      1674 3.33805E+01 1.00795E+00 9.18450E+01
 -1      1675 4.23900E+01-5.84577E-01 8.43880E+01
 -1      1676 3.33867E+01 1.00698E+00 1.61851E+02
 -1      1677 4.23900E+01-5.84577E-01 1.64388E+02
 -1      1678 3.33867E+01 1.00698E+00 1.71851E+02
 -1      1679 3.33867E+01 1.00698E+00 1.81851E+02
 -1      1680 4.23900E+01-5.84577E-01 1.84388E+02
 -1      1681 3.33867E+01 1.00698E+00 1.91851E+02
 -1      1682 4.51717E+01 9.00973E-01 2.65836E+02
 -1      1683 4.51717E+01 9.00973E-01 2.75836E+02
 -1      1684 4.23900E+01-5.84577E-01 1.94388E+02
 -1      1685-1.15891E+00-1.03217E+00 2.93431E+02
 -1      1686 4.27792E+01-5.56396E-01 1.53239E+02
 -1      1687 3.84355E+00-7.86047E-01 5.96168E+00
 -1      1688-2.30075E+01 1.81466E+00 1.01057E+02
 -1      1689-2.73450E+01 1.81034E+00 1.04259E+02
 -1      1690-2.89452E+01 1.82291E+00 9.98563E+01
 -1      1691 4.23900E+01-5.84577E-01 9.43880E+01
 -1      1692 4.23900E+01-5.84577E-01 1.74388E+02
 -1      1693-2.15412E+01 1.90645E+00 1.27242E+02
 -1      1694-2.72358E+01 1.90543E+00 1.25977E+02
 -1      1695-2.20804E+01 1.90043E+00 1.22131E+02
 -1      1696-2.37502E+01-1.09298E+00 4.34416E+00
 -1      1697-1.86063E+01-1.11249E+00 4.55026E+00
 -1      1698-2.29612E+01 4.75324E+00 6.75346E+00
 -1      1699-2.33359E+01 1.86596E+00 1.13037E+01
 -1      1700-2.84799E+01 1.88548E+00 1.10976E+01
 -1      1701-2.88860E+01 1.89570E+00 2.87449E+02
 -1      1702-2.23216E+01 1.87640E+00 2.88465E+02
 -1      1703-2.29119E+01 4.75680E+00 2.92354E+02
 -1      1704-1.76414E+01-1.10562E+00 2.96112E+02
 -1      1705-2.42057E+01-1.08632E+00 2.95095E+02
 -1      1706-3.13736E+01 1.53822E+00 9.54347E+01
 -1      1707-3.48847E+01 8.21369E-01 1.00766E+02
 -1      1708-3.74447E+01 1.80335E+00 9.43333E+01
 -1      1709-4.09558E+01 1.08650E+00 9.96645E+01
 -1      1710-2.69205E+01 1.90287E+00 2.05923E+02
 -1      1711-2.17035E+01 1.90445E+00 2.07505E+02
 -1      1712-2.05925E+01 1.92134E+00 2.02971E+02
 -1      1713-2.37228E+01 2.00853E+00 2.11207E+02
 -1      1714-1.85058E+01 2.01011E+00 2.12788E+02
 -1      1715-1.18333E+01 2.16351E+00 2.24709E+02
 -1      1716-1.73872E+01 2.01093E+00 2.23092E+02
 -1      1717-1.77663E+01 2.00636E+00 2.28160E+02
 -1      1718-1.50066E+01 1.96461E+00 1.28099E+02
 -1      1719-1.55457E+01 1.95859E+00 1.22988E+02
 -1      1720 4.23900E+01-5.84577E-01 2.24388E+02
 -1      1721 3.40800E+01 8.97702E-01 2.30593E+02
 -1      1722 3.14304E+01 1.30394E+00 2.24105E+02
 -1      1723 4.02364E+00 4.01574E+00 5.65176E+00
 -1      1724-2.67400E+01 1.90160E+00 1.66108E+02
 -1      1725-2.02053E+01 1.95976E+00 1.66965E+02
 -1      1726-1.47505E+01 1.96810E+00 1.63092E+02
 -1      1727-2.12851E+01 1.90995E+00 1.62235E+02
 -1      1728-2.78231E+01 1.81298E+00 2.24002E+02
 -1      1729-2.25707E+01 2.00481E+00 2.25983E+02
 -1      1730-2.30199E+01 2.00809E+00 2.21568E+02
 -1      1731-2.82723E+01 1.81626E+00 2.19587E+02
 -1      1732-2.63716E+01 1.91194E+00 8.12605E+01
 -1      1733-1.92507E+01 1.95776E+00 8.32354E+01
 -1      1734-1.47519E+01 2.04410E+00 7.94244E+01
 -1      1735-2.18728E+01 1.99828E+00 7.74495E+01
 -1      1736-1.77183E+01 4.87816E+00 6.46591E+00
 -1      1737-6.72129E+00 2.00947E+00 2.30285E+02
 -1      1738-1.26543E+01 1.85232E+00 2.33736E+02
 -1      1739-7.29868E+00 1.98737E+00 2.35733E+02
 -1      1740-1.96132E+01 1.99302E+00 1.32706E+02
 -1      1741-2.53077E+01 1.99199E+00 1.31441E+02
 -1      1742-1.81095E+01 1.92230E+00 2.03018E+01
 -1      1743-1.24576E+01 1.96055E+00 2.53015E+01
 -1      1744-1.81874E+01 2.01619E+00 2.54349E+01
 -1      1745-2.38392E+01 1.97795E+00 2.04352E+01
 -1      1746-1.80348E+01 2.00806E+00 1.03300E+02
 -1      1747-2.23723E+01 2.00374E+00 1.06503E+02
 -1      1748-3.62214E+01 1.70205E+00 1.68852E+02
 -1      1749-3.26347E+01 2.07488E+00 1.64289E+02
 -1      1750-3.03267E+01 1.52878E+00 1.70672E+02
 -1      1751-2.58881E+01 1.99116E+00 2.62296E+01
 -1      1752-2.97345E+01 1.72890E+00 2.96814E+01
 -1      1753-3.12498E+01 1.53377E+00 2.49035E+01
 -1      1754-4.36156E+01 1.31592E+00 2.97456E+02
 -1      1755-2.78578E+01 1.81320E+00 1.40317E+02
 -1      1756-3.37969E+01 1.98701E+00 1.43268E+02
 -1      1757-3.36963E+01 1.98026E+00 1.38076E+02
 -1      1758-1.19997E+01 1.97419E+00 8.40484E+01
 -1      1759-3.97364E+01 9.85465E-01 1.44178E+02
 -1      1760-3.96357E+01 9.78715E-01 1.38986E+02
 -1      1761-2.48119E+01 1.98817E+00 1.71572E+02
 -1      1762-3.97325E+01 9.85201E-01 1.84184E+02
 -1      1763-3.37930E+01 1.98674E+00 1.83274E+02
 -1      1764-3.36851E+01 1.97952E+00 1.78078E+02
 -1      1765-3.96246E+01 9.77981E-01 1.78987E+02
 -1      1766-1.18467E+01 2.17568E+00 1.05705E+02
 -1      1767-1.76864E+01 2.01224E+00 1.08318E+02
 -1      1768-3.34183E+01 1.04576E+00 1.26014E+02
 -1      1769-3.40878E+01 1.05279E+00 1.20196E+02
 -1      1770-2.79052E+01 1.91246E+00 1.20158E+02
 -1      1771-3.92171E+01 9.52817E-01 1.04285E+02
 -1      1772-3.32776E+01 1.95436E+00 1.03376E+02
 -1      1773-3.92968E+01 1.25038E+00 1.24222E+02
 -1      1774 3.81169E+00 4.03660E+00 2.92437E+02
 -1      1775-2.38271E+01 1.90546E+00 8.70929E+01
 -1      1776-1.80930E+01 1.99089E+00 1.10162E+01
 -1      1777-1.51689E+01 1.96260E+00 2.08361E+02
 -1      1778-1.40578E+01 1.97950E+00 2.03827E+02
 -1      1779-3.34663E+01 1.00473E+00 2.19532E+02
 -1      1780-3.36851E+01 1.97952E+00 2.18078E+02
 -1      1781-3.88792E+01 1.16799E+00 2.18022E+02
 -1      1782-2.90959E+01 1.85992E+00 2.71635E+02
 -1      1783-2.41792E+01 2.02125E+00 2.72627E+02
 -1      1784-1.79663E+01 2.00394E+00 2.70816E+02
 -1      1785-2.28830E+01 1.84261E+00 2.69824E+02
 -1      1786-2.66311E+01 1.99667E+00 2.66472E+02
 -1      1787-2.04182E+01 1.97935E+00 2.64661E+02
 -1      1788-3.07501E+01 1.64208E+00 1.14402E+02
 -1      1789-2.90316E+01 1.62810E+00 1.09518E+02
 -1      1790-2.24135E+01 2.00391E+00 1.11448E+02
 -1      1791-2.41320E+01 2.01789E+00 1.16333E+02
 -1      1792-1.43077E+01 1.97507E+00 1.68196E+02
 -1      1793-3.61247E+01 1.69557E+00 1.33655E+02
 -1      1794-3.61135E+01 1.69483E+00 1.73656E+02
 -1      1795-3.88173E+01 1.21521E+00 1.64326E+02
 -1      1796 2.75900E-01 1.41379E+00 2.34275E+02
 -1      1797 8.53290E-01 1.43590E+00 2.28827E+02
 -1      1798-1.71811E+01 2.01964E+00 1.43770E+02
 -1      1799-1.17296E+01 1.86096E+00 1.40263E+02
 -1      1800-1.15765E+01 1.86350E+00 1.45061E+02
 -1      1801-1.70280E+01 2.02218E+00 1.48568E+02
 -1      1802-3.08225E+01 1.53261E+00 1.30541E+02
 -1      1803-2.39163E+01 2.01005E+00 2.15885E+02
 -1      1804-1.82835E+01 2.01289E+00 2.17409E+02
 -1      1805-2.92010E+01 1.52056E+00 1.91091E+01
 -1      1806-2.79003E+01 1.81348E+00 1.80379E+02
 -1      1807-1.65760E+01 1.92189E+00 8.79059E+01
 -1      1808-3.02862E+01 1.52851E+00 1.35895E+02
 -1      1809-2.78985E+01 1.81347E+00 1.45094E+02
 -1      1810-2.07755E+01 1.99223E+00 1.55209E+01
 -1      1811-3.05072E+01 1.53005E+00 2.10487E+02
 -1      1812-3.62606E+01 1.70474E+00 2.08813E+02
 -1      1813-3.26740E+01 2.07756E+00 2.04249E+02
 -1      1814-3.59445E+01 9.47046E-01 3.84080E+01
 -1      1815-4.06870E+01 1.20078E+00 3.40935E+01
 -1      1816-3.43531E+01 9.21872E-01 3.25812E+01
 -1      1817-3.29245E+01 1.04195E+00 1.61431E+02
 -1      1818-2.67420E+01 1.90162E+00 1.61393E+02
 -1      1819-2.95869E+01 1.63124E+00 1.55637E+02
 -1      1820-4.00110E+01 1.50512E+00 8.42435E+01
 -1      1821-4.25403E+01 8.37952E-01 8.93649E+01
 -1      1822-4.34242E+01 5.19530E-01 8.60842E+01
 -1      1823-2.91811E+01 1.87362E+00 2.95095E+02
 -1      1824-7.23971E+00 1.87200E+00 7.55322E+00
 -1      1825-7.19590E+00 1.87342E+00 1.52634E+01
 -1      1826-3.82818E+00-1.13263E+00 7.71020E+00
 -1      1827-2.46885E+00 4.53832E+00 7.55322E+00
 -1      1828-3.29216E+01 1.04261E+00 2.01427E+02
 -1      1829-2.67419E+01 1.90161E+00 2.01393E+02
 -1      1830-2.95868E+01 1.63124E+00 1.95637E+02
 -1      1831-3.07007E+01 1.53157E+00 2.15166E+02
 -1      1832-3.61135E+01 1.69483E+00 2.13656E+02
 -1      1833 5.73876E+00 1.66392E+00 2.32934E+02
 -1      1834-3.13260E+01 1.75407E+00 3.55082E+01
 -1      1835 3.31533E+01 9.90196E-01 1.13857E+02
 -1      1836 4.21568E+01-6.01389E-01 1.16394E+02
 -1      1837 4.21568E+01-6.01389E-01 1.06394E+02
 -1      1838-3.87094E+01 1.20799E+00 1.59130E+02
 -1      1839-3.53717E+01 1.79728E+00 1.53336E+02
 -1      1840-2.38324E+01 2.01354E+00 2.37590E+02
 -1      1841-2.91782E+01 1.76820E+00 2.34665E+02
 -1      1842-2.83658E+01 1.76161E+00 2.28913E+02
 -1      1843-2.30199E+01 2.00695E+00 2.31839E+02
 -1      1844-3.40510E+01 1.85298E+00 2.58893E+01
 -1      1845-3.60684E+01 2.00781E+00 3.11937E+01
 -1      1846-4.10576E+01 1.10357E+00 2.93641E+01
 -1      1847-3.90401E+01 9.48738E-01 2.40597E+01
 -1      1848-3.87065E+01 1.20866E+00 1.99126E+02
 -1      1849-3.53717E+01 1.79728E+00 1.93336E+02
 -1      1850-3.88536E+01 1.21856E+00 2.04283E+02
 -1      1851-3.09040E+01 1.79837E+00 4.07378E+01
 -1      1852-1.82155E+01 2.00851E+00 2.34015E+02
 -1      1853-2.84450E+01 1.92535E+00 6.48292E+01
 -1      1854-2.43275E+01 1.89844E+00 6.07805E+01
 -1      1855-2.52803E+01 1.82940E+00 6.65457E+01
 -1      1856-2.93977E+01 1.85632E+00 7.05944E+01
 -1      1857-1.77276E+01 2.01241E+00 1.13263E+02
 -1      1858-1.89143E+01 2.00348E+00 1.72803E+02
 -1      1859-2.29578E+01 1.83576E+00 7.18178E+01
 -1      1860-3.67009E+01 1.73723E+00 1.28749E+02
 -1      1861-2.51997E+01 2.01115E+00 9.66751E+01
 -1      1862-1.92619E+01 2.00290E+00 9.78753E+01
 -1      1863-2.95849E+01 1.63122E+00 1.90352E+02
 -1      1864-2.78983E+01 1.81347E+00 1.85094E+02
 -1      1865-3.54797E+01 1.80450E+00 1.88532E+02
 -1      1866-3.75555E+01 5.40516E-01 9.07747E+01
 -1      1867-4.19888E+01 7.77841E-01 9.45951E+01
 -1      1868-2.87256E+01 1.86697E+00 4.34416E+00
 -1      1869-4.34226E+01 9.20014E-01 2.26366E+02
 -1      1870-3.96873E+01 5.83312E-01 2.27920E+02
 -1      1871-2.60184E+01 1.86731E+00 1.58084E+01
 -1      1872-3.16624E+01 1.53872E+00 1.43983E+01
 -1      1873-2.95851E+01 1.63123E+00 1.50352E+02
 -1      1874-3.54835E+01 1.80476E+00 1.48527E+02
 -1      1875-1.54014E+01 1.95955E+00 2.89756E+02
 -1      1876-1.59917E+01 4.83996E+00 2.93645E+02
 -1      1877-1.02141E+01 2.02207E+00 1.89570E+01
 -1      1878-3.78271E+01 1.10908E+00 2.23652E+02
 -1      1879-3.26330E+01 1.92061E+00 2.23708E+02
 -1      1880-1.83071E+01 2.00587E+00 1.18306E+02
 -1      1881-2.20050E+01 1.90480E+00 6.60526E+01
 -1      1882-2.62329E+01 1.99131E+00 2.61783E+02
 -1      1883-2.40012E+01 1.97539E+00 2.57583E+02
 -1      1884-3.24242E+01 1.46067E+00 2.66342E+02
 -1      1885-3.55551E+01 7.83578E-01 2.70319E+02
 -1      1886-1.09772E+01 1.75759E+00 1.00118E+02
 -1      1887-4.78913E+00 1.92521E+00 1.02523E+02
 -1      1888-1.21547E+01 2.01825E+00 6.53751E+01
 -1      1889-7.88475E+00 2.17358E+00 7.03156E+01
 -1      1890 8.01844E-01 1.63154E+00 7.01067E+01
 -1      1891-3.46814E+00 1.47621E+00 6.51662E+01
 -1      1892-3.30113E+01 1.56602E+00 9.05128E+01
 -1      1893-3.79962E+01 1.86346E+00 8.91031E+01
 -1      1894-2.93126E+01 1.77319E+00 3.49110E+01
 -1      1895-2.43374E+01 1.75976E+00 4.02207E+01
 -1      1896 3.31473E+01 9.91133E-01 1.03851E+02
 -1      1897-1.20193E+01 1.85654E+00 1.79956E+02
 -1      1898-1.74708E+01 2.01521E+00 1.83464E+02
 -1      1899-1.70279E+01 2.02218E+00 1.88568E+02
 -1      1900-1.15764E+01 1.86350E+00 1.85061E+02
 -1      1901-2.29686E+01 2.00705E+00 1.97568E+02
 -1      1902-1.68192E+01 2.02677E+00 1.99145E+02
 -1      1903-4.16525E+01 1.31819E+00 3.92841E+01
 -1      1904-4.20315E+01 1.21872E+00 4.39270E+01
 -1      1905-3.63234E+01 8.47576E-01 4.30509E+01
 -1      1906-3.95382E+01 9.75644E-01 4.68953E+01
 -1      1907-3.18482E+01 1.69337E+00 4.64064E+01
 -1      1908-3.50631E+01 1.82144E+00 5.02507E+01
 -1      1909-3.03287E+01 1.52879E+00 1.75957E+02
 -1      1910 4.75838E-01 2.22001E+00 1.35149E+01
 -1      1911-3.49642E+01 1.77212E+00 1.08634E+02
 -1      1912-1.41537E+01 1.86658E+00 4.55026E+00
 -1      1913-2.29667E+01 2.00703E+00 1.92283E+02
 -1      1914-1.94524E+01 1.96369E+00 2.52012E+02
 -1      1915-1.58694E+01 1.96765E+00 2.59090E+02
 -1      1916-3.91642E+01 1.36055E+00 2.37367E+02
 -1      1917-3.50772E+01 1.99211E+00 2.34193E+02
 -1      1918-3.32653E+01 1.13664E+00 2.37840E+02
 -1      1919-9.24052E+00 2.12400E+00 1.29389E+02
 -1      1920-1.22754E+01 1.85304E+00 1.34964E+02
 -1      1921-6.50928E+00 2.01243E+00 1.36254E+02
 -1      1922-2.29670E+01 2.00704E+00 1.52283E+02
 -1      1923-2.29687E+01 2.00705E+00 1.57568E+02
 -1      1924-4.18673E+01 3.73462E-01 8.14478E+01
 -1      1925-1.14644E+01 1.81318E+00 2.20398E+02
 -1      1926-1.16867E+01 1.81039E+00 2.15777E+02
 -1      1927-4.17648E+01 1.77675E+00 2.93401E+02
 -1      1928-1.73887E+01 1.99834E+00 7.37367E+01
 -1      1929-1.10000E+01 1.74256E+00 7.42432E+01
 -1      1930-8.36320E+00 1.78832E+00 7.99308E+01
 -1      1931-2.68374E+01 2.03896E+00 9.17532E+01
 -1      1932-1.28801E+01 2.09200E+00 1.41761E+01
 -1      1933-1.94445E+00 1.77847E+00 3.47116E+01
 -1      1934-6.70761E+00 1.62278E+00 2.81021E+01
 -1      1935-1.54155E+01 2.03419E+00 3.00978E+01
 -1      1936-1.06523E+01 2.18988E+00 3.67074E+01
 -1      1937-1.90674E+01 2.00094E+00 1.38005E+02
 -1      1938-2.78230E+01 1.88437E+00 2.40785E+02
 -1      1939-2.60118E+01 1.87311E+00 2.47570E+02
 -1      1940-2.09535E+01 1.89773E+00 2.43020E+02
 -1      1941-1.14017E+01 1.87072E+00 2.39547E+02
 -1      1942-1.43940E+01 1.98831E+00 2.47462E+02
 -1      1943-7.67057E+00 2.21427E+00 2.48434E+02
 -1      1944-4.67823E+00 2.09667E+00 2.40519E+02
 -1      1945-3.31757E+01 1.86924E+00 2.28619E+02
 -1      1946-3.63672E+01 1.70800E+00 1.69087E+01
 -1      1947-5.03157E+00 2.07493E+00 1.41559E+02
 -1      1948-3.64760E+01 1.88397E+00 1.14009E+02
 -1      1949-3.98137E+01 1.29468E+00 1.19803E+02
 -1      1950-3.55662E+01 1.65785E+00 2.11114E+01
 -1      1951-7.04529E+00 1.76063E+00 6.00556E+01
 -1      1952-1.43872E+01 2.06420E+00 5.85868E+01
 -1      1953-3.72627E+01 1.23768E+00 2.31794E+02
 -1      1954-3.20260E+01 1.45532E+00 2.61652E+02
 -1      1955-3.84541E+01 1.35905E+00 7.96071E+01
 -1      1956-2.53256E+00 2.06431E+00 2.07033E+01
 -1      1957-5.55076E+00 2.21295E+00 2.43969E+01
 -1      1958-5.70202E+00 1.97962E+00 1.10406E+02
 -1      1959-1.15417E+01 1.81618E+00 1.13019E+02
 -1      1960 2.93677E+00 1.22089E+00 2.21610E+02
 -1      1961 7.82224E+00 1.44891E+00 2.25716E+02
 -1      1962-3.36746E+01 1.23260E+00 2.74032E+02
 -1      1963-3.56579E+01 8.18470E-01 6.99870E+01
 -1      1964-4.09563E+01 1.06895E+00 6.93504E+01
 -1      1965-3.85314E+01 1.61263E+00 6.44187E+01
 -1      1966-3.32330E+01 1.36214E+00 6.50553E+01
 -1      1967 9.80735E+00 1.55797E+00 2.18609E+02
 -1      1968-1.54373E+01 1.95562E+00 6.91652E+01
 -1      1969-1.77598E+01 1.94926E+00 6.38932E+01
 -1      1970 3.09412E+00 1.73972E+00 6.46199E+01
 -1      1971-2.41249E+01 1.83615E+00 2.75810E+02
 -1      1972-1.92082E+01 1.99748E+00 2.76802E+02
 -1      1973-4.90097E+00 1.84393E+00 2.72879E+02
 -1      1974-1.23963E+01 2.14093E+00 2.72758E+02
 -1      1975-1.17129E+01 1.70048E+00 2.76923E+02
 -1      1976-2.47715E+01 1.98790E+00 1.36795E+02
 -1      1977-2.31162E+01 2.00916E+00 3.08925E+01
 -1      1978-3.41834E+00 1.90299E+00 2.81349E+02
 -1      1979-1.75119E+01 2.01538E+00 1.58410E+02
 -1      1980 2.27780E+01 4.30393E-01 2.85444E+02
 -1      1981 1.94689E+01 9.14121E-01 2.79725E+02
 -1      1982 1.07511E+01 1.95185E+00 2.84573E+02
 -1      1983 4.09967E+01 1.59156E+00 1.97463E+02
 -1      1984 3.33867E+01 1.00698E+00 2.01851E+02
 -1      1985 2.96228E+01 7.42259E-01 1.96041E+02
 -1      1986 4.09967E+01 1.59156E+00 1.77463E+02
 -1      1987 2.96228E+01 7.42259E-01 1.76041E+02
 -1      1988 2.96228E+01 7.42259E-01 1.56041E+02
 -1      1989 4.09967E+01 1.59156E+00 1.57463E+02
 -1      1990-1.70690E+01 2.02234E+00 1.93514E+02
 -1      1991-4.16103E+01 8.05134E-01 1.14769E+02
 -1      1992-1.70691E+01 2.02234E+00 1.53514E+02
 -1      1993-1.97962E+01 1.99955E+00 4.27210E+01
 -1      1994-2.63628E+01 2.03815E+00 4.32382E+01
 -1      1995-4.15228E+01 1.56101E+00 2.45551E+02
 -1      1996-1.07340E+01 2.06854E+00 2.09680E+02
 -1      1997-6.30853E+00 2.25439E+00 2.04450E+02
 -1      1998-1.45260E+01 1.92378E+00 2.66231E+02
 -1      1999-2.14252E+01 1.99407E+00 9.25954E+01
 -1      2000-3.93544E+01 1.50302E+00 2.74136E+02
 -1      2001-4.12350E+01 1.05400E+00 2.70423E+02
 -1      2002-1.81410E+01 1.99574E+00 3.62022E+01
 -1      2003-6.67836E-01 2.09345E+00 8.12025E+01
 -1      2004-4.30429E+00 2.27932E+00 8.53201E+01
 -1      2005-5.91056E+00 1.96576E+00 2.22014E+02
 -1      2006-1.44949E+01 2.11696E+00 9.39266E+01
 -1      2007-1.20087E+01 2.04683E+00 2.53586E+02
 -1      2008-4.25496E+01 1.29944E+00 4.93306E+01
 -1      2009-1.99924E+01 1.99520E+00 5.71049E+01
 -1      2010-3.37376E+01 2.02547E+00 7.44746E+01
 -1      2011-2.74419E+01 1.83570E+00 7.55306E+01
 -1      2012-3.21584E+01 1.16928E+00 8.06630E+01
 -1      2013 4.23900E+01-5.84577E-01 2.34388E+02
 -1      2014-4.34214E+01 1.04341E+00 5.40046E+01
 -1      2015-3.17292E+01-1.11364E+00 4.34416E+00
 -1      2016-3.64340E+01-9.44367E-01 6.85461E+00
 -1      2017-4.04606E+01 4.72143E-01 6.14086E+01
 -1      2018-4.40520E+01 8.29996E-01 5.88511E+01
 -1      2019-3.98301E+01 6.85560E-01 5.65621E+01
 -1      2020-4.83028E-01 2.02414E+00 5.95092E+01
 -1      2021-2.28852E+01 2.00660E+00 1.42560E+02
 -1      2022-2.29258E+01 2.00687E+00 1.47337E+02
 -1      2023-3.18024E+01 2.03292E+00 5.99342E+01
 -1      2024-2.29256E+01 2.00687E+00 1.87337E+02
 -1      2025 3.40233E+00 1.78048E+00 8.59582E+01
 -1      2026-3.81040E+01 1.73110E+00 2.66446E+02
 -1      2027-1.69629E+01 2.02690E+00 2.39826E+02
 -1      2028 1.26707E+01 1.75451E+00 2.92136E+02
 -1      2029-5.03157E+00 2.07493E+00 1.81559E+02
 -1      2030-2.92393E+01 1.95035E+00 8.62507E+01
 -1      2031-3.65905E+01 1.46971E+00 6.01602E+01
 -1      2032-6.21018E+00 1.87165E+00 9.61697E+01
 -1      2033-1.08832E+01 1.82612E+00 1.93270E+02
 -1      2034-1.08833E+01 1.82612E+00 1.53270E+02
 -1      2035-3.44738E+00 1.96053E+00 7.53935E+01
 -1      2036-8.95600E+00 2.06077E+00 2.68174E+02
 -1      2037-3.50261E+01 1.20768E+00 8.56532E+01
 -1      2038-3.87556E+01 1.58734E+00 4.65481E+00
 -1      2039-3.54050E+01 4.17171E+00 4.65481E+00
 -1      2040-3.76495E+01 1.49389E+00 1.15094E+01
 -1      2041-6.54096E+00 2.06751E+00 4.28973E+01
 -1      2042-1.67787E+01 1.95176E+00 2.82648E+02
 -1      2043-1.15765E+01 1.86350E+00 1.75061E+02
 -1      2044-6.91954E+00 1.99638E+00 1.76294E+02
 -1      2045-9.65078E+00 2.10794E+00 1.69429E+02
 -1      2046 6.29306E-01 2.29066E+00 1.94866E+02
 -1      2047-5.20639E+00 1.99998E+00 1.95020E+02
 -1      2048-2.88408E+00 2.10544E+00 1.99524E+02
 -1      2049-1.06334E+01 1.83055E+00 1.98901E+02
 -1      2050 1.38277E+00 1.66504E+00 2.46406E+02
 -1      2051-1.93571E+01 1.99651E+00 1.77699E+02
 -1      2052-4.00984E+01 6.93281E-01 1.09393E+02
 -1      2053-4.04100E+01 7.19612E-01 5.15693E+01
 -1      2054-6.27161E+00 2.06816E+00 2.93431E+02
 -1      2055 1.75391E+00 1.47216E+00 2.85867E+02
 -1      2056-7.25190E+00 1.91633E+00 2.17096E+02
 -1      2057-4.05059E+01 7.18445E-01 1.54096E+02
 -1      2058-4.05059E+01 7.18445E-01 1.94096E+02
 -1      2059-3.60298E+01 1.28957E+00 2.79148E+02
 -1      2060-3.62434E+01 1.58521E+00 2.62566E+02
 -1      2061-1.06653E+01 2.00296E+00 2.60727E+02
 -1      2062-4.33836E+00 2.03754E+00 1.49768E+02
 -1      2063-6.22634E+00 1.95900E+00 1.54503E+02
 -1      2064-2.29276E+01 2.00688E+00 1.82622E+02
 -1      2065-3.29447E+01 1.32461E+00 8.99897E+00
 -1      2066-9.64572E+00 2.04477E+00 8.92371E+01
 -1      2067-1.21213E+01 1.80964E+00 1.18062E+02
 -1      2068 2.89635E+00 1.52310E+00 2.39061E+02
 -1      2069-2.48139E+01 1.98818E+00 1.76857E+02
 -1      2070 6.40623E+00 2.21591E+00 3.23225E+01
 -1      2071 1.99227E-01 1.87519E+00 2.71975E+01
 -1      2072-2.36989E+01 1.86860E+00 2.81357E+02
 -1      2073-2.39213E+01 2.00551E+00 4.82958E+01
 -1      2074-4.06688E+01 6.70059E-01 1.33916E+02
 -1      2075-4.06576E+01 6.69325E-01 1.73918E+02
 -1      2076-2.84625E+01 1.76572E+00 4.57955E+01
 -1      2077-4.05841E+01 6.93301E-01 2.13821E+02
 -1      2078-4.32673E+01 9.71085E-01 2.17897E+02
 -1      2079-3.21846E+01-1.10698E+00 2.95095E+02
 -1      2080-3.61548E+01 4.02263E+00 2.95945E+02
 -1      2081-3.41499E+01 1.18219E+00 2.91040E+02
 -1      2082-3.96241E+01 1.45036E+00 2.90311E+02
 -1      2083-3.76588E+01-8.38813E-01 2.94366E+02
 -1      2084-3.44831E+01 1.78738E+00 5.52435E+01
 -1      2085-1.02609E+01 2.08520E+00 1.23088E+02
 -1      2086 1.24084E+01 9.77550E-01 1.11330E+02
 -1      2087 4.69658E+00 1.82314E+00 1.11270E+02
 -1      2088 1.19733E+01 2.25894E+00 1.07522E+02
 -1      2089 1.96851E+01 1.41336E+00 1.07582E+02
 -1      2090-6.31653E+00 1.78200E+00 5.46773E+01
 -1      2091-2.00707E+00 1.43024E+00 4.88350E+01
 -1      2092 8.02835E+00 1.90212E+00 4.86097E+01
 -1      2093 3.71888E+00 2.25388E+00 5.44520E+01
 -1      2094 2.77886E+01 1.89123E+00 1.45490E+02
 -1      2095-1.36585E+01 2.08557E+00 5.32086E+01
 -1      2096-3.14511E+01 1.91690E+00 2.76751E+02
 -1      2097-3.99977E+01 9.87628E-01 7.38672E+01
 -1      2098-3.68160E+01 1.21807E+00 2.41583E+02
 -1      2099-3.13737E+01 1.96579E+00 2.44528E+02
 -1      2100-2.95539E+00 1.49761E+00 2.51559E+02
 -1      2101-4.12655E+01 1.61813E+00 2.40878E+02
 -1      2102-8.48422E+00 2.15426E+00 2.87075E+02
 -1      2103 6.21697E+00 1.87418E+00 1.89238E+02
 -1      2104 3.81283E-01 1.58350E+00 1.89392E+02
 -1      2105-4.02709E+01 6.35743E-01 2.63168E+02
 -1      2106-3.90043E+01 1.00827E+00 2.59170E+02
 -1      2107-3.95054E+01 1.43826E+00 2.95945E+02
 -1      2108 7.97514E-01 1.85252E+00 2.05939E+02
 -1      2109 8.89858E+00 2.31296E+00 2.06505E+02
 -1      2110 4.58392E+00 2.05319E+00 2.13087E+02
 -1      2111-5.01717E+00 1.67026E+00 2.58397E+02
 -1      2112-1.93910E+00 1.54594E+00 8.98752E+01
 -1      2113-3.10252E+01 1.94935E+00 2.82298E+02
 -1      2114 2.69718E+00 2.21151E+00 2.74347E+02
 -1      2115 8.74321E-01 1.53588E+00 4.30359E+01
 -1      2116 9.22500E+00 1.97333E+00 4.06468E+01
 -1      2117-6.38673E-01 1.54252E+00 1.78875E+02
 -1      2118-2.54462E+00 1.70606E+00 1.70918E+02
 -1      2119-4.12450E+01 7.11720E-01 1.29011E+02
 -1      2120-4.21315E+01 7.81631E-01 2.67048E+02
 -1      2121 7.02172E+00 1.95346E+00 1.02956E+02
 -1      2122 1.47335E+01 1.10787E+00 1.03016E+02
 -1      2123-7.76281E+00 2.18649E+00 1.64695E+02
 -1      2124-4.06178E+01 7.25929E-01 1.49286E+02
 -1      2125-4.06139E+01 7.25665E-01 1.89292E+02
 -1      2126 3.20891E+01 6.85743E-01 2.43491E+02
 -1      2127 3.17838E+01 7.34540E-01 2.35597E+02
 -1      2128 2.45341E+01 1.77303E+00 2.40659E+02
 -1      2129 9.60021E-01 2.30284E+00 2.19013E+02
 -1      2130-3.39394E+01 1.89016E+00 2.58171E+02
 -1      2131 6.29306E-01 2.29066E+00 1.54866E+02
 -1      2132 6.21697E+00 1.87418E+00 1.49238E+02
 -1      2133-6.38673E-01 1.54252E+00 1.48875E+02
 -1      2134-3.62800E+00 1.66667E+00 2.11170E+02
 -1      2135-2.13436E+00 1.72212E+00 1.30878E+02
 -1      2136 2.57158E+00 2.29518E+00 9.92931E+01
 -1      2137-4.33836E+00 2.03754E+00 1.89768E+02
 -1      2138 1.96569E+01 1.34755E+00 2.30208E+02
 -1      2139 1.30727E+01 2.09874E+00 2.32111E+02
 -1      2140 1.51562E+01 1.88373E+00 2.24893E+02
 -1      2141 1.54910E+01 1.46008E+00 2.88302E+01
 -1      2142 7.35799E+00 2.27405E+00 2.58162E+01
 -1      2143 8.33220E+00 1.06122E+00 3.02115E+01
 -1      2144-3.38993E-01 1.58348E+00 1.06186E+02
 -1      2145-3.54714E+01 8.68517E-01 2.87340E+02
 -1      2146-2.97220E+01 1.76028E+00 2.57257E+02
 -1      2147-2.74902E+01 1.74435E+00 2.53058E+02
 -1      2148-2.94067E+01 1.66072E+00 5.14640E+01
 -1      2149 1.45392E+01 1.40195E+00 3.53365E+01
 -1      2150 2.92602E+01 8.93183E-01 2.17789E+01
 -1      2151 3.90518E+01-8.20057E-01 1.60715E+01
 -1      2152 2.87195E+01 9.75058E-01 1.07321E+01
 -1      2153-4.04033E+01 5.29402E-01 1.94531E+01
 -1      2154 4.03344E+01-7.30888E-01 3.56854E+01
 -1      2155-4.07655E+01 6.76544E-01 1.69114E+02
 -1      2156 2.73995E+01 1.86305E+00 1.86639E+02
 -1      2157 1.11187E+01 1.94059E+00 1.74205E+01
 -1      2158 3.95993E+00 1.54173E+00 1.88019E+01
 -1      2159-9.42234E+00 1.96187E+00 4.86964E+01
 -1      2160-1.51889E+01 2.08806E+00 4.90253E+01
 -1      2161-2.28407E-01 1.55857E+00 1.38835E+02
 -1      2162 2.20716E+01 1.45060E+00 4.36516E+01
 -1      2163 1.56214E+01 1.04450E+00 4.83739E+01
 -1      2164 2.52597E+01 1.66834E+00 5.03730E+01
 -1      2165-4.15888E+01 7.06179E-01 2.33494E+02
 -1      2166-3.30787E+00 1.72808E+00 2.65843E+02
 -1      2167 1.18236E+01 1.50821E+00 5.39896E+01
 -1      2168 2.14620E+01 2.13205E+00 5.59888E+01
 -1      2169 3.86467E+01-8.47892E-01 2.19874E+02
 -1      2170 4.23900E+01-5.84577E-01 2.14388E+02
 -1      2171 3.10099E+01 5.26245E-01 2.14264E+02
 -1      2172 3.47532E+01 7.89560E-01 2.08778E+02
 -1      2173-4.22759E+01 1.18218E+00 2.74453E+02
 -1      2174-4.03953E+01 1.63120E+00 2.78166E+02
 -1      2175-4.15623E+01 1.44578E+00 2.22098E+02
 -1      2176-4.07313E+01 7.03204E-01 2.08979E+02
 -1      2177 6.63862E+00 1.89810E+00 1.37676E+02
 -1      2178 4.73267E+00 2.06164E+00 1.29719E+02
 -1      2179-3.76106E+01 9.22169E-01 2.82190E+02
 -1      2180-4.12042E+01 5.79544E-01 1.52504E+01
 -1      2181 2.71214E+00 2.00788E+00 2.59660E+02
 -1      2182-3.70733E+01 1.16095E+00 2.46256E+02
 -1      2183-4.09456E+01 1.13669E+00 2.86612E+02
 -1      2184-1.40297E+01 1.87336E+00 4.23921E+01
 -1      2185 1.48469E+01 1.73785E+00 2.00232E+02
 -1      2186 6.74581E+00 1.27741E+00 1.99666E+02
 -1      2187-4.25768E+01 1.30779E+00 2.50807E+01
 -1      2188-4.24016E+01 6.15059E-01 6.56671E+01
 -1      2189 4.77392E+00 1.83522E+00 2.52822E+02
 -1      2190 3.05427E+01 9.82352E-01 3.13927E+01
 -1      2191 4.03344E+01-7.30888E-01 2.56854E+01
 -1      2192 1.56782E+01 1.74475E+00 6.03887E+01
 -1      2193 1.11506E+01 2.20601E+00 6.59617E+01
 -1      2194 7.62166E+00 1.27847E+00 5.90468E+01
 -1      2195-3.28521E+01 1.83704E+00 2.50015E+02
 -1      2196-3.48294E+01 1.94950E+00 2.53639E+02
 -1      2197 1.24931E+00 1.62106E+00 1.44140E+02
 -1      2198 1.08047E+01 2.14940E+00 1.44462E+02
 -1      2199 2.82516E+01 6.49289E-01 1.35120E+02
 -1      2200-2.67260E+01 1.90626E+00 5.61547E+01
 -1      2201 3.32940E+01 4.75975E-01 5.11609E+01
 -1      2202 2.91212E+01 1.13057E+00 5.77167E+01
 -1      2203 4.00381E+01-7.51634E-01 5.82372E+01
 -1      2204 4.29028E+00 2.09565E+00 2.67310E+02
 -1      2205-3.98943E+01 1.06760E+00 2.54638E+02
 -1      2206 2.04178E+01 2.26568E+00 2.95067E+02
 -1      2207 3.05251E+01 9.41572E-01 2.88375E+02
 -1      2208 1.02592E+01 1.46263E+00 1.95008E+02
 -1      2209 4.23900E+01-5.84577E-01 2.04388E+02
 -1      2210 4.01395E+01-7.44540E-01 2.95067E+02
 -1      2211-3.94215E+01 1.30343E+00 2.42041E+02
 -1      2212 6.21697E+00 1.87418E+00 1.79238E+02
 -1      2213 4.31102E+00 2.03773E+00 1.71281E+02
 -1      2214 2.80080E+01 4.08622E-01 2.54631E+02
 -1      2215 2.51628E+01 2.25846E-01 2.46574E+02
 -1      2216 1.64427E+01 1.45830E+00 2.50449E+02
 -1      2217 1.92879E+01 1.64108E+00 2.58506E+02
 -1      2218 2.69982E+01 1.91477E+00 8.77728E+01
 -1      2219 2.35857E+01 1.60885E+00 2.24671E+02
 -1      2220 1.90850E+01 2.14504E+00 2.19356E+02
 -1      2221 1.88624E+01 1.36042E+00 6.60218E+01
 -1      2222 1.55232E+01 1.15428E+00 7.11153E+01
 -1      2223 2.57744E+01 1.82716E+00 7.09166E+01
 -1      2224-2.23909E+01 2.00303E+00 5.24791E+01
 -1      2225 1.15223E+01 2.00030E+00 2.39175E+02
 -1      2226-3.90506E+01 1.27341E+00 2.49880E+02
 -1      2227 4.11663E+01-6.72191E-01 6.75319E+01
 -1      2228-4.19762E+01 1.26379E+00 2.81209E+02
 -1      2229 1.65739E+01 1.32700E+00 2.27737E+01
 -1      2230-3.15476E+00 1.68332E+00 1.24577E+02
 -1      2231 3.45236E+01 8.58899E-01 2.49921E+02
 -1      2232 1.67374E+01 1.93682E+00 2.65904E+02
 -1      2233 1.02355E+01 1.53479E+00 2.71799E+02
 -1      2234 8.65733E+00 1.44702E+00 2.64148E+02
 -1      2235 1.12932E+01 9.18882E-01 8.59758E+01
 -1      2236 7.50464E+00 1.37076E+00 9.11993E+01
 -1      2237 8.89871E+00 2.31295E+00 1.66505E+02
 -1      2238-6.56645E-01 1.78461E+00 1.66184E+02
 -1      2239 4.31102E+00 2.03773E+00 1.61281E+02
 -1      2240 4.11663E+01-6.72191E-01 7.75319E+01
 -1      2241-4.33836E+00 2.03754E+00 1.59768E+02
 -1      2242 4.72509E+00 1.23784E+00 7.53903E+01
 -1      2243 7.50464E+00 1.37076E+00 8.11993E+01
 -1      2244 3.03113E+01 9.74274E-01 2.95067E+02
 -1      2245 1.96776E+01 1.41287E+00 8.68103E+01
 -1      2246 1.58891E+01 1.86475E+00 9.20338E+01
 -1      2247 1.24931E+00 1.62106E+00 1.84140E+02
 -1      2248 4.25283E+01-5.74582E-01 2.55823E+02
 -1      2249 1.82918E+01 1.32417E+00 2.05930E+02
 -1      2250 2.99030E+01 1.05728E+00 4.66054E+00
 -1      2251 6.96832E+00 1.69743E+00 1.16134E+01
 -1      2252 1.76077E+01 1.31314E+00 2.43742E+02
 -1      2253-1.13261E+01 1.81915E+00 1.58166E+02
 -1      2254 1.02592E+01 1.46263E+00 1.55008E+02
 -1      2255 1.00088E+01 2.14224E+00 2.46520E+02
 -1      2256 2.69982E+01 1.91477E+00 1.67773E+02
 -1      2257 1.48469E+01 1.73785E+00 1.60232E+02
 -1      2258 8.61983E+00 1.42943E+00 1.16554E+02
 -1      2259 8.82203E+00 1.83583E+00 2.92437E+02
 -1      2260 2.73347E+01 5.88217E-01 1.18665E+02
 -1      2261 1.71579E+01 1.94786E+00 1.19811E+02
 -1      2262 2.09464E+01 1.49598E+00 1.14588E+02
 -1      2263 2.17033E+01 2.78932E-01 7.50618E+01
 -1      2264 1.17347E+01 1.60616E+00 7.63388E+01
 -1      2265 2.33374E+01 7.43280E-01 6.21166E+01
 -1      2266 1.12079E+01 1.15128E+00 2.56751E+02
 -1      2267-6.83648E+00 1.93625E+00 1.18162E+02
 -1      2268 1.09450E+01 1.55975E+00 9.82397E+01
 -1      2269 1.82918E+01 1.32417E+00 1.65930E+02
 -1      2270 3.19544E+01 9.51810E-01 7.48631E+01
 -1      2271 1.17366E+01 1.36565E+00 1.33731E+02
 -1      2272 1.59026E+01 1.61696E+00 1.40516E+02
 -1      2273 2.32548E+01 1.65146E+00 2.13259E+02
 -1      2274 1.39772E+01 1.06439E+00 2.12512E+02
 -1      2275 2.41879E+01 1.71580E+00 1.02971E+02
 -1      2276 3.05702E+01 8.08970E-01 9.70434E+01
 -1      2277 3.05762E+01 8.08034E-01 1.07049E+02
 -1      2278 2.22644E+01 1.50536E+00 1.39908E+02
 -1      2279 1.86931E+01 1.27244E+00 1.44796E+02
 -1      2280-6.66445E-01 2.21927E+00 1.15490E+02
 -1      2281 2.41879E+01 1.71580E+00 9.29712E+01
 -1      2282 2.03993E+01 2.16768E+00 9.81947E+01
 -1      2283 1.08047E+01 2.14940E+00 1.84462E+02
 -1      2284 1.58965E+01 1.86524E+00 1.12805E+02
 -1      2285 2.09464E+01 1.49598E+00 1.24588E+02
 -1      2286 9.03399E+00 1.81497E+00 5.65176E+00
 -1      2287 1.76224E+01 2.36665E+00 1.17233E+01
 -1      2288 3.01527E+00 1.96634E+00 1.21905E+02
 -1      2289 2.30891E+01 1.14498E+00 2.68122E+02
 -1      2290 1.65872E+01 7.42956E-01 2.74017E+02
 -1      2291 1.03372E+01 1.52474E+00 1.24367E+02
 -1      2292 2.56948E+01 7.68088E-01 2.62849E+02
 -1      2293 3.65642E+01 7.09788E-01 4.58075E+01
 -1      2294 4.33083E+01-5.17821E-01 4.28838E+01
 -1      2295 3.35904E+01 4.96720E-01 3.86090E+01
 -1      2296 1.91581E+01 1.41158E+00 2.36678E+02
 -1      2297 2.01311E+01 4.23378E-01 4.66054E+00
 -1      2298 7.81144E+00 1.99986E+00 7.10552E+01
 -1      2299 1.58891E+01 1.86475E+00 8.20338E+01
 -1      2300 1.41258E+01 1.07286E+00 1.29144E+02
 -1      2301 4.33083E+01-5.17821E-01 5.28838E+01
 -1      2302 2.32773E+01 1.97532E+00 3.27468E+01
 -1      2303 1.94739E+01 1.84987E+00 1.35628E+02
 -1      2304 2.57451E+01 1.32345E+00 2.75568E+02
 -1      2305 7.86943E+00 1.78069E+00 2.78864E+02
 -1      2306 2.50329E+01 1.70901E+00 2.34189E+02
 -1      2307-1.11973E+01 2.05238E+00 2.93645E+02
 -1      2308 3.01059E+01 2.58237E-01 4.44394E+01
 -1      2309 2.30776E+01 1.75307E+00 1.70765E+01
 -1      2310 2.70583E+01 7.43868E-01 3.72231E+01
 -1      2311 2.73349E+01 5.88189E-01 1.28665E+02
 -1      2312 2.58577E+01 5.37527E-01 8.07568E+01
 -1      2313 2.43602E+01 1.84224E+00 2.66903E+01
 -1      2314 1.97894E+01 2.06374E+00 1.56265E+02
 -1      2315 2.32343E+01 1.65005E+00 1.61963E+02
 -1      2316 1.97894E+01 2.06374E+00 1.96265E+02
 -1      2317 2.32343E+01 1.65005E+00 2.01963E+02
 -1      2318 1.68180E+01 1.11571E+00 4.04109E+01
 -1      2319 1.13149E+01 1.34174E+00 1.75293E+02
 -1      2320 1.97928E+01 1.73683E+00 3.85772E+01
 -1      2321 2.36356E+01 1.59833E+00 1.90829E+02
 -1      2322 2.36356E+01 1.59833E+00 1.50829E+02
 -1      2323 1.31171E+01 1.70596E+00 2.77507E+02
 -1      2324 2.18631E+01 1.55708E+00 1.31042E+02
 -1      2325 2.08451E+01 1.94285E+00 1.76549E+02
 -1      2326 1.59026E+01 1.61696E+00 1.70516E+02
 -1      2327 1.59026E+01 1.61696E+00 1.80516E+02
 -1      2328 2.69982E+01 1.91477E+00 2.07773E+02
 -1      2329 3.22104E+01 1.21837E+00 2.58140E+02
 -1      2330-1.31888E+01 1.87345E+00 2.96112E+02
 -1      2331 1.48469E+01 1.73785E+00 1.50232E+02
 -1      2332 1.48469E+01 1.73785E+00 1.90232E+02
 -1      2333 1.86931E+01 1.27244E+00 1.84796E+02
 -1      2334 2.60734E+01 5.05594E-01 1.11659E+02
 -1      2335 2.83508E+01 9.46561E-01 2.70296E+02
 -1      2336 2.76870E+01 1.04063E+00 2.19591E+02
 -1      2337 2.64078E+01 3.73083E-01 2.31617E+02
 -1      2338 2.73291E+01 1.87217E+00 2.29185E+02
 -1      2339 2.36356E+01 1.59833E+00 1.80829E+02
 -1      2340 3.38404E+01 5.45860E-02 2.73815E+02
 -1      2341 2.90542E+01 8.39725E-01 2.81287E+02
 -1      2342 2.32343E+01 1.65005E+00 1.71963E+02
 -1      2343 3.09893E+01 5.24839E-01 2.02968E+02
 -1      2344 2.60600E+01 5.06048E-01 9.08825E+01
 -1      2345-1.29239E+01 2.09058E+00 6.46591E+00
 -1      2346 3.90518E+01-8.20057E-01 6.07154E+00
 -1      2347 4.01395E+01-7.44540E-01 2.85067E+02
 -1      2348 3.53113E+01 1.56433E-01 2.80903E+02
 -1      2349 3.02494E+01 1.21002E+00 6.70114E+01
 -1      2350 2.16320E+00 1.13622E+00 9.51163E+01
 -1      2351 3.95797E+01-7.83552E-01 9.95865E+01
 -1      2352 4.25283E+01-5.74582E-01 2.45823E+02
 -1      2353 4.00938E+01-7.47738E-01 2.39392E+02
 -3
    3C                          1105                                     1
 -1       917    6    0    1
 -2       242        82       236       949       460       464       465      1664      1663      1665
 -1       918    6    0    1
 -2        83       236        82       949       463       464        97      1666      1665      1663
 -1       919    6    0    1
 -2       226       236        83       954       468       463       467      1668      1667      1669
 -1       920    6    0    1
 -2       977       241        89       239      1671       487      1670      1672       488       489
 -1       921    6    0    1
 -2       244       246        80       939       459       452       458      1674      1673      1675
 -1       922    6    0    1
 -2        84       226       957       223       466      1676      1677       470       471      1678
 -1       923    6    0    1
 -2        85       223       966       220       469      1679      1680       473       474      1681
 -1       924    6    0    1
 -2       131       130       977       241       145      1222      1223      1683      1682      1671
 -1       925    6    0    1
 -2       966        86        85       220      1684       100      1680      1681       472       473
 -1       926    6    0    1
 -2       903      1641       161       162      1685      1658      1248      1249      1662       167
 -1       927    6    0    1
 -2        84       226        83       954       466       467        98      1686      1668      1669
 -1       928    6    0    1
 -2       150       151      1619      1006       156      1640      1635      1235      1234      1687
 -1       929    6    0    1
 -2       911       912       986       305      1324      1335      1334      1689      1688      1690
 -1       930    6    0    1
 -2       244        80        81       939       458        95       457      1674      1675      1691
 -1       931    6    0    1
 -2       957        85        84       223      1692        99      1677      1678       469       470
 -1       932    6    0    1
 -2       951       950       926       277      1402      1399      1403      1694      1693      1695
 -1       933    6    0    1
 -2      1005      1620       982       253      1697      1696      1233      1699      1698      1700
 -1       934    6    0    1
 -2      1053       256      1018      1642      1702      1701      1247      1704      1703      1705
 -1       935    6    0    1
 -2       264       986       305       290      1706      1690       798       791      1707       797
 -1       936    6    0    1
 -2       986       264       988       290      1706      1708      1560      1707       791      1709
 -1       937    6    0    1
 -2       269       904       976       905      1711      1277      1710      1712      1274      1278
 -1       938    6    0    1
 -2       307       976       269       904      1713      1710       810      1714      1277      1711
 -1       939    6    0    1
 -2       308       963       920       961      1716      1297      1715      1717      1387      1352
 -1       940    6    0    1
 -2       277       950       926       323      1693      1399      1695       846      1718      1719
 -1       941    6    0    1
 -2       149      1005       150      1620      1231      1232       155      1630      1697      1637
 -1       942    6    0    1
 -2       248        87       972       225       479      1720      1721       482       481      1722
 -1       943    6    0    1
 -2      1053       160       161      1642      1245       166      1246      1704      1653      1659
 -1       944    6    0    1
 -2       108       109       310      1619       114       499       498      1634      1633      1723
 -1       945    6    0    1
 -2       318       992       273       993      1725      1724       830      1726      1568      1727
 -1       946    6    0    1
 -2       308       962       296      1048      1729      1728       764      1730      1510      1731
 -1       947    6    0    1
 -2       265      1057      1015       328      1733      1593      1732       801      1734      1735
 -1       948    6    0    1
 -2       962      1048       308       963      1510      1730      1729      1506      1282      1716
 -1       949    6    0    1
 -2      1620       312       108       107      1736       493      1628      1629       494       113
 -1       950    6    0    1
 -2       232       961       920       913      1738      1352      1737      1739      1351      1347
 -1       951    6    0    1
 -2       950       277       951       320      1693      1694      1402      1740       840      1741
 -1       952    6    0    1
 -2       980       331       979       282      1743      1742      1530      1744       634      1745
 -1       953    6    0    1
 -2       912       305       911       326      1688      1689      1324      1746       870      1747
 -1       954    6    0    1
 -2      1041       273       272       992      1749       819      1748      1573      1724      1750
 -1       955    6    0    1
 -2       978       278       282       280      1752       632      1751      1753       847       780
 -1       956    6    0    1
 -2       308       920       232       961      1715      1737       582      1717      1352      1738
 -1       957    6    0    1
 -2        35        66         2      1019       333        71        65      1068      1754      1069
 -1       958    6    0    1
 -2      1043      1052      1042       302      1584      1488      1124      1756      1755      1757
 -1       959    6    0    1
 -2       328       265      1057       329       801      1733      1734       734       802      1758
 -1       960    6    0    1
 -2      1042       288      1043       302      1760      1759      1124      1757       841      1756
 -1       961    6    0    1
 -2       315       273       318       992       824       830       688      1761      1724      1725
 -1       962    6    0    1
 -2       299      1037       286      1036      1763      1762       825      1764      1136      1765
 -1       963    6    0    1
 -2       910       930       912       326      1329      1328      1325      1767      1766      1746
 -1       964    6    0    1
 -2      1047       275       951       277      1769      1768      1404      1770       834      1694
 -1       965    6    0    1
 -2       986       988       987       290      1560      1112      1337      1707      1709      1771
 -1       966    6    0    1
 -2       987       305       986       290      1772      1690      1337      1771       797      1707
 -1       967    6    0    1
 -2       951      1047      1046       275      1404      1489      1487      1768      1769      1773
 -1       968    6    0    1
 -2      1641        68        69       250      1655        74      1656      1774       441       442
 -1       969    6    0    1
 -2      1057      1015      1013       265      1593      1592      1457      1733      1732      1775
 -1       970    6    0    1
 -2      1005       312      1620       253      1776      1736      1697      1699       497      1698
 -1       971    6    0    1
 -2       269       314       307       904       814       586       810      1711      1777      1714
 -1       972    6    0    1
 -2       314       904       269       905      1777      1711       814      1778      1274      1712
 -1       973    6    0    1
 -2       296      1048       170      1032      1731      1779       507      1780      1527      1781
 -1       974    6    0    1
 -2       258      1028       259      1023      1783      1782       557      1784      1608      1785
 -1       975    6    0    1
 -2       259      1028       177      1023      1782      1786       551      1785      1608      1787
 -1       976    6    0    1
 -2       911       303      1047       322      1789      1788      1327      1790       844      1791
 -1       977    6    0    1
 -2       991       992       318       993      1567      1725      1792      1438      1568      1726
 -1       978    6    0    1
 -2       277       320       950       323       840      1740      1693       846       663      1718
 -1       979    6    0    1
 -2      1042       276       288       302      1793       833      1760      1757       842       841
 -1       980    6    0    1
 -2       299       286       272      1036       825       817       826      1764      1765      1794
 -1       981    6    0    1
 -2       271       273       272      1041       818       819       816      1795      1749      1748
 -1       982    6    0    1
 -2       232       913       920       183      1739      1347      1737       579      1796      1797
 -1       983    6    0    1
 -2       996       193       321       994      1799       660      1798      1454      1800      1801
 -1       984    6    0    1
 -2       276       951       275       277      1802      1768       832       835      1694       834
 -1       985    6    0    1
 -2       308       296       307      1048       764       811       584      1730      1731      1803
 -1       986    6    0    1
 -2       308      1048       307       963      1730      1803       584      1716      1282      1804
 -1       987    6    0    1
 -2       978       282       979       280      1751      1745      1529      1753       780      1805
 -1       988    6    0    1
 -2      1037      1036       299      1050      1136      1764      1763      1558      1574      1806
 -1       989    6    0    1
 -2      1057       265      1013       329      1733      1775      1457      1758       802      1807
 -1       990    6    0    1
 -2      1052       276      1042       302      1808      1793      1488      1755       842      1757
 -1       991    6    0    1
 -2       995      1052      1043       302      1580      1584      1582      1809      1755      1756
 -1       992    6    0    1
 -2       979       282       331       312      1745       634      1742      1810       782       852
 -1       993    6    0    1
 -2       976       268       269      1035      1811       805      1710      1526      1812      1813
 -1       994    6    0    1
 -2      1062      1020       978       285      1539      1537      1538      1815      1814      1816
 -1       995    6    0    1
 -2       273       271       301      1051       818       820       821      1818      1817      1819
 -1       996    6    0    1
 -2      1064       262       263       283      1821       790      1820      1822       370       367
 -1       997    6    0    1
 -2        67      1018       256      1642      1823      1701       438      1650      1705      1703
 -1       998    6    0    1
 -2       319      1007       150      1619      1825      1236      1824      1827      1826      1635
 -1       999    6    0    1
 -2       269       267       297      1049       804       806       807      1829      1828      1830
 -1      1000    6    0    1
 -2       268      1048       296      1032      1831      1731       511      1832      1527      1780
 -1      1001    6    0    1
 -2       914       920       913       183      1348      1347      1344      1833      1797      1796
 -1      1002    6    0    1
 -2       278       978      1020       285      1752      1537      1834       850      1816      1814
 -1      1003    6    0    1
 -2        82       242        81      1010       460       461        96      1836      1835      1837
 -1      1004    6    0    1
 -2      1040       301       271      1051      1839       820      1838      1583      1819      1817
 -1      1005    6    0    1
 -2      1038       234       304       962      1841       565      1840      1508      1842      1843
 -1      1006    6    0    1
 -2      1062       278      1061       279      1845      1844      1540      1846       849      1847
 -1      1007    6    0    1
 -2      1049       267       297      1034      1828       806      1830      1557      1848      1849
 -1      1008    6    0    1
 -2       267       269       268      1035       804       805       803      1850      1813      1812
 -1      1009    6    0    1
 -2       307       296       268      1048       811       511       809      1803      1731      1831
 -1      1010    6    0    1
 -2       278       285      1020       306       850      1814      1834       633       851      1851
 -1      1011    6    0    1
 -2      1038       962       304       961      1508      1843      1840      1507      1505      1852
 -1      1012    6    0    1
 -2      1055       295       958       311      1854      1853      1495      1855       864      1856
 -1      1013    6    0    1
 -2      1047       910       911       322      1326      1323      1327      1791      1857      1790
 -1      1014    6    0    1
 -2       315       992       318       991      1761      1725       688      1858      1567      1792
 -1      1015    6    0    1
 -2       958      1056      1055       311      1500      1501      1495      1856      1859      1855
 -1      1016    6    0    1
 -2       273       992      1041      1051      1724      1573      1749      1818      1570      1575
 -1      1017    6    0    1
 -2       307       963      1048       904      1804      1282      1803      1714      1280      1281
 -1      1018    6    0    1
 -2       951       275      1046       276      1768      1773      1487      1802       832      1860
 -1      1019    6    0    1
 -2       986       305       912       325      1690      1688      1335      1861       799      1862
 -1      1020    6    0    1
 -2       299       984       297      1037      1864      1863       855      1763      1556      1865
 -1      1021    6    0    1
 -2       986       987       911       305      1337      1336      1334      1690      1772      1689
 -1      1022    6    0    1
 -2       988      1014      1064       262      1562      1518      1109      1867      1866      1821
 -1      1023    6    0    1
 -2       982       253      1620       107      1700      1698      1696      1868       496      1629
 -1      1024    6    0    1
 -2      1031        29      1033       171      1146      1151      1152      1869       408      1870
 -1      1025    6    0    1
 -2       253       982       979       280      1700      1543      1871       779      1872      1805
 -1      1026    6    0    1
 -2       951       926      1047       277      1403      1333      1404      1694      1695      1770
 -1      1027    6    0    1
 -2       995       302      1043       301      1809      1756      1582      1873       857      1874
 -1      1028    6    0    1
 -2       256      1053       251      1642      1702      1875       439      1703      1704      1876
 -1      1029    6    0    1
 -2      1007       979       980       331      1542      1530      1541      1877      1742      1743
 -1      1030    6    0    1
 -2      1049       269       976       905      1829      1710      1290      1291      1712      1278
 -1      1031    6    0    1
 -2       267      1049       269      1035      1828      1829       804      1850      1528      1813
 -1      1032    6    0    1
 -2       296      1033       170      1048      1879      1878       507      1731      1513      1779
 -1      1033    6    0    1
 -2       979       978       980       282      1529      1531      1530      1745      1751      1744
 -1      1034    6    0    1
 -2      1047       277       926       322      1770      1695      1333      1791       845      1880
 -1      1035    6    0    1
 -2      1051       273       992       993      1818      1724      1570      1571      1727      1568
 -1      1036    6    0    1
 -2       273      1041       271      1051      1749      1795       818      1818      1575      1817
 -1      1037    6    0    1
 -2       295      1055      1056       311      1854      1501      1881       864      1855      1859
 -1      1038    6    0    1
 -2      1022       177      1024      1023      1883      1882      1601      1595      1787      1600
 -1      1039    6    0    1
 -2       178       259       284      1028       552       560       559      1884      1782      1885
 -1      1040    6    0    1
 -2       269      1049       976      1035      1829      1290      1710      1813      1528      1526
 -1      1041    6    0    1
 -2       912       326       930       206      1746      1766      1328      1886       703      1887
 -1      1042    6    0    1
 -2       330       943      1065       214      1889      1467      1888       539      1890      1891
 -1      1043    6    0    1
 -2       264      1064      1014       262      1893      1518      1892       788      1821      1866
 -1      1044    6    0    1
 -2      1037       299       984      1050      1763      1864      1556      1558      1806      1553
 -1      1045    6    0    1
 -2       308       304       234       962       763       565       765      1729      1843      1842
 -1      1046    6    0    1
 -2       989       978      1020       306      1535      1537      1536      1895      1894      1851
 -1      1047    6    0    1
 -2        81       242       244      1010       461       462       457      1837      1835      1896
 -1      1048    6    0    1
 -2       316       985       199       983      1898      1897       620      1899      1421      1900
 -1      1049    6    0    1
 -2      1049       313       269       905      1901       813      1829      1291      1902      1712
 -1      1050    6    0    1
 -2       285      1060      1020       327      1903      1599      1814       353      1904      1905
 -1      1051    6    0    1
 -2       304       962       308       961      1843      1729       763      1852      1505      1717
 -1      1052    6    0    1
 -2      1049      1035       267      1034      1528      1850      1828      1557      1142      1848
 -1      1053    6    0    1
 -2       322       911       303       326      1790      1789       844       706      1747       871
 -1      1054    6    0    1
 -2      1020       327      1059       292      1905      1906      1566      1907       863      1908
 -1      1055    6    0    1
 -2       259       177       258      1023       551       555       557      1785      1787      1784
 -1      1056    6    0    1
 -2       271      1041      1040      1051      1795      1130      1838      1817      1575      1583
 -1      1057    6    0    1
 -2       299      1036       272      1050      1764      1794       826      1806      1574      1909
 -1      1058    6    0    1
 -2      1007      1619       319      1006      1826      1827      1825      1238      1687      1910
 -1      1059    6    0    1
 -2       305       987       911       303      1772      1336      1689       859      1911      1789
 -1      1060    6    0    1
 -2      1005       108      1620       312      1912      1628      1697      1776       493      1736
 -1      1061    6    0    1
 -2       313      1049       297       984      1901      1830       812      1913      1552      1863
 -1      1062    6    0    1
 -2      1022       180       177      1023      1914       544      1883      1595      1915      1787
 -1      1063    6    0    1
 -2      1044       234       235      1038      1917       512      1916      1616      1841      1918
 -1      1064    6    0    1
 -2       323       950       937       193      1718      1401      1919       650      1920      1921
 -1      1065    6    0    1
 -2       317       301       995      1051       828      1873      1922      1923      1819      1579
 -1      1066    6    0    1
 -2        14      1064       970       283      1105      1106      1101       364      1822      1924
 -1      1067    6    0    1
 -2       181       963       307       904      1925      1804       585      1926      1280      1714
 -1      1068    6    0    1
 -2        35       255        66      1019       432       433       333      1068      1927      1754
 -1      1069    6    0    1
 -2      1056       328      1057       209      1928      1734      1470      1929       735      1930
 -1      1070    6    0    1
 -2       264       986      1014       325      1706      1561      1892       795      1861      1931
 -1      1071    6    0    1
 -2       978       278      1062       285      1752      1845      1538      1816       850      1815
 -1      1072    6    0    1
 -2       979       331      1007       312      1742      1877      1542      1810       852      1932
 -1      1073    6    0    1
 -2       185       980       998       189      1934      1546      1933       529      1935      1936
 -1      1074    6    0    1
 -2       296       170       268      1032       507       510       511      1780      1781      1832
 -1      1075    6    0    1
 -2       950       320       996       193      1740      1937      1453      1920       662      1799
 -1      1076    6    0    1
 -2        67       251        68      1642       437       436        73      1650      1876      1651
 -1      1077    6    0    1
 -2      1047       926       910       322      1333      1332      1326      1791      1880      1857
 -1      1078    6    0    1
 -2      1042      1052       951       276      1488      1484      1486      1793      1808      1802
 -1      1079    6    0    1
 -2       268       976       307      1048      1811      1713       809      1831      1283      1803
 -1      1080    6    0    1
 -2       179      1022      1038      1066      1939      1604      1938      1940      1596      1509
 -1      1081    6    0    1
 -2       180      1066       232       915      1942      1941       570      1943      1350      1944
 -1      1082    6    0    1
 -2      1044      1033       234      1038      1153      1945      1917      1616      1511      1841
 -1      1083    6    0    1
 -2       981       979       982       280      1544      1543      1230      1946      1805      1872
 -1      1084    6    0    1
 -2       305       303       911       326       859      1789      1689       870       871      1747
 -1      1085    6    0    1
 -2       308       234       296       962       765       508       764      1729      1842      1728
 -1      1086    6    0    1
 -2       938       193       996       994      1947      1799      1452      1431      1800      1454
 -1      1087    6    0    1
 -2       303      1045      1047       275      1948      1564      1788       836      1949      1769
 -1      1088    6    0    1
 -2       979       981      1061       280      1544      1082      1533      1805      1946      1950
 -1      1089    6    0    1
 -2       174      1065       175       330      1952      1951       523       530      1888       531
 -1      1090    6    0    1
 -2      1044       235       234      1033      1916       512      1917      1153      1953      1945
 -1      1091    6    0    1
 -2       263      1064       264       262      1820      1893       789       790      1821       788
 -1      1092    6    0    1
 -2      1028       178       177      1024      1884       541      1786      1609      1954      1882
 -1      1093    6    0    1
 -2       263       970      1064       283      1955      1106      1820       367      1924      1822
 -1      1094    6    0    1
 -2      1007       319       331      1017      1825       610      1877      1549      1956      1957
 -1      1095    6    0    1
 -2       930       326       910       203      1766      1767      1329      1958       702      1959
 -1      1096    6    0    1
 -2       178       177       259      1028       541       551       552      1884      1786      1782
 -1      1097    6    0    1
 -2       313       269       297      1049       813       807       812      1901      1829      1830
 -1      1098    6    0    1
 -2       301       317       273      1051       828       829       821      1819      1923      1818
 -1      1099    6    0    1
 -2      1043       302       288       301      1756       841      1759      1874       857       856
 -1      1100    6    0    1
 -2       299       297       286      1037       855       854       825      1763      1865      1762
 -1      1101    6    0    1
 -2       920       183       914       182      1797      1833      1348      1960       574      1961
 -1      1102    6    0    1
 -2       259       260       284      1028       787       431       560      1782      1962      1885
 -1      1103    6    0    1
 -2       959       231       958       293      1964      1963      1492      1965       758      1966
 -1      1104    6    0    1
 -2       914       919       920       182      1356      1294      1348      1961      1967      1960
 -1      1105    6    0    1
 -2       330      1055      1056       295      1969      1501      1968       534      1854      1881
 -1      1106    6    0    1
 -2       175       330      1065       214       531      1888      1951       537       539      1891
 -1      1107    6    0    1
 -2      1065       214       943       948      1891      1890      1467      1468      1970      1464
 -1      1108    6    0    1
 -2       259      1028       258      1026      1782      1783       557      1971      1610      1972
 -1      1109    6    0    1
 -2       258       901       252      1026      1974      1973       756      1972      1261      1975
 -1      1110    6    0    1
 -2       295      1056       330       311      1881      1968       534       864      1859       865
 -1      1111    6    0    1
 -2       950      1052       996       320      1483      1485      1453      1740      1976      1937
 -1      1112    6    0    1
 -2       275      1047       303       277      1769      1788       836       834      1770       837
 -1      1113    6    0    1
 -2       980       282       978       189      1744      1751      1531      1935       631      1977
 -1      1114    6    0    1
 -2       903       252       901      1026      1978      1973      1257      1260      1975      1261
 -1      1115    6    0    1
 -2      1062      1060      1020       285      1090      1599      1539      1815      1903      1814
 -1      1116    6    0    1
 -2       318       273       317       993       830       829       668      1726      1727      1979
 -1      1117    6    0    1
 -2       240      1002       300       250      1981      1980       774       770      1982       445
 -1      1118    6    0    1
 -2       969       127       965       220      1207      1209      1211      1984      1983      1985
 -1      1119    6    0    1
 -2       966       126       956       223      1202      1204      1206      1679      1986      1987
 -1      1120    6    0    1
 -2       125       953       957       226      1199      1201      1197      1989      1988      1676
 -1      1121    6    0    1
 -2       979      1061       978       280      1533      1532      1529      1805      1950      1753
 -1      1122    6    0    1
 -2       226       125       953       954      1989      1199      1988      1668      1195      1200
 -1      1123    6    0    1
 -2      1049       984       313       983      1552      1913      1901      1292      1550      1990
 -1      1124    6    0    1
 -2       291      1045       303       275      1991      1948       838       379      1949       836
 -1      1125    6    0    1
 -2       950       323       320       193      1718       663      1740      1920       650       662
 -1      1126    6    0    1
 -2      1051       317       273       993      1923       829      1818      1571      1979      1727
 -1      1127    6    0    1
 -2      1062       285       278       279      1815       850      1845      1846       350       849
 -1      1128    6    0    1
 -2       296       962      1033      1048      1728      1512      1879      1731      1510      1513
 -1      1129    6    0    1
 -2       277       323       926       322       846      1719      1695       845       704      1880
 -1      1130    6    0    1
 -2      1051       995       317       994      1579      1922      1923      1576      1577      1992
 -1      1131    6    0    1
 -2      1020       172       989       306      1994      1993      1536      1851       520      1895
 -1      1132    6    0    1
 -2       216        31        30      1054       413        60       414      1995      1154      1155
 -1      1133    6    0    1
 -2       905       314       906       924      1778      1996      1275      1284      1997      1285
 -1      1134    6    0    1
 -2       170      1048      1033      1032      1779      1513      1878      1781      1527      1615
 -1      1135    6    0    1
 -2       229       177       180      1023       553       544       554      1998      1787      1915
 -1      1136    6    0    1
 -2      1013      1014       986       325      1563      1561      1343      1999      1931      1861
 -1      1137    6    0    1
 -2      1028       260       284      1029      1962       431      1885      1614      2000      2001
 -1      1138    6    0    1
 -2       989       189       978       306      2002      1977      1535      1895       521      1894
 -1      1139    6    0    1
 -2      1057       209       329       945      1930       732      1758      1456      2003      2004
 -1      1140    6    0    1
 -2       180      1022       179      1066      1914      1939       548      1942      1596      1940
 -1      1141    6    0    1
 -2       988       986      1014       264      1560      1561      1562      1708      1706      1892
 -1      1142    6    0    1
 -2      1056       943      1065       330      1469      1467      1471      1968      1889      1888
 -1      1143    6    0    1
 -2       183       920       181       182      1797      2005       573       574      1960       575
 -1      1144    6    0    1
 -2       326       912       325       206      1746      1862       718       703      1886       719
 -1      1145    6    0    1
 -2       277      1047       303       322      1770      1788       837       845      1791       844
 -1      1146    6    0    1
 -2       276      1052       951       320      1808      1484      1802       839      1976      1741
 -1      1147    6    0    1
 -2       108       310       319      1619       498       501       500      1634      1723      1827
 -1      1148    6    0    1
 -2       940      1013       912       325      1341      1342      1339      2006      1999      1862
 -1      1149    6    0    1
 -2      1050      1036       272       992      1574      1794      1909      1569      1572      1750
 -1      1150    6    0    1
 -2      1022      1016       180      1023      1594      2007      1914      1595      1264      1915
 -1      1151    6    0    1
 -2      1025      1059        11       327      1094      1093      1092      2008      1906       352
 -1      1152    6    0    1
 -2      1007       331       980      1017      1877      1743      1541      1549      1957      1547
 -1      1153    6    0    1
 -2       174      1055      1065       330      2009      1482      1952       530      1969      1888
 -1      1154    6    0    1
 -2       920       308       181       963      1715       583      2005      1297      1716      1925
 -1      1155    6    0    1
 -2      1015       311       970       263      2011      2010      1498      2012       761      1955
 -1      1156    6    0    1
 -2       972        88        87       248      2013       102      1720      1721       478       479
 -1      1157    6    0    1
 -2      1025       327        11       294      2008       352      1092      2014       356       355
 -1      1158    6    0    1
 -2       982       148       981      1621      1229      1079      1230      2015      1627      2016
 -1      1159    6    0    1
 -2      1025       230       960       294      2018      2017      1100      2014       359      2019
 -1      1160    6    0    1
 -2       175       214      1065       948       537      1891      1951      2020      1970      1468
 -1      1161    6    0    1
 -2       278       978       189       306      1752      1977       630       633      1894       521
 -1      1162    6    0    1
 -2      1046      1047      1045       275      1489      1564      1118      1773      1769      1949
 -1      1163    6    0    1
 -2       278       280      1061       279       847      1950      1844       849       848      1847
 -1      1164    6    0    1
 -2      1052       302       995       321      1755      1809      1580      2021       868      2022
 -1      1165    6    0    1
 -2       958      1055       960       295      1495      1496      1493      1853      1854      2023
 -1      1166    6    0    1
 -2       963       308       962       961      1716      1729      1506      1387      1717      1505
 -1      1167    6    0    1
 -2       313       297       316       984       812       867       623      1913      1863      2024
 -1      1168    6    0    1
 -2       988       264      1014       262      1708      1892      1562      1867       788      1866
 -1      1169    6    0    1
 -2       234      1038      1033       962      1841      1511      1945      1842      1508      1512
 -1      1170    6    0    1
 -2       314       269       313       905       814       813       621      1778      1712      1902
 -1      1171    6    0    1
 -2       316       297       299       984       867       855       866      2024      1863      1864
 -1      1172    6    0    1
 -2       951      1046      1042       276      1487      1121      1486      1802      1860      1793
 -1      1173    6    0    1
 -2       211       329       209       945       716       732       727      2025      2004      2003
 -1      1174    6    0    1
 -2      1028       284       178      1029      1885       559      1884      1614      2001      2026
 -1      1175    6    0    1
 -2      1038       304       179      1066      1840       562      1938      1509      2027      1940
 -1      1176    6    0    1
 -2       253       979       282       280      1871      1745       781       779      1805       780
 -1      1177    6    0    1
 -2        69       300      1002       250       444      1980      2028       442       445      1982
 -1      1178    6    0    1
 -2      1033       296       234       962      1879       508      1945      1512      1728      1842
 -1      1179    6    0    1
 -2       320      1052       996       321      1976      1485      1937       661      2021      1798
 -1      1180    6    0    1
 -2       269       307       268       976       810       809       805      1710      1713      1811
 -1      1181    6    0    1
 -2       995       317       321       301      1922       670      2022      1873       828       869
 -1      1182    6    0    1
 -2       988       290       264       262      1709       791      1708      1867       373       788
 -1      1183    6    0    1
 -2      1066       915       180      1016      1350      1943      1942      1363      1362      2007
 -1      1184    6    0    1
 -2       292      1020       327       306      1907      1905       863       522      1851       853
 -1      1185    6    0    1
 -2       995       321       302       301      2022       868      1809      1873       869       857
 -1      1186    6    0    1
 -2       985       929       199       983      1411      2029      1897      1421      1392      1900
 -1      1187    6    0    1
 -2      1056      1015      1057       328      1499      1593      1470      1928      1735      1734
 -1      1188    6    0    1
 -2       181       232       308       920       578       582       583      2005      1737      1715
 -1      1189    6    0    1
 -2       264      1014       265       325      1892      2030       793       795      1931       796
 -1      1190    6    0    1
 -2       960       293       958       295      2031      1966      1493      2023       862      1853
 -1      1191    6    0    1
 -2       328      1056       330       209      1928      1968       736       735      1929       733
 -1      1192    6    0    1
 -2       940       325       912       206      2006      1862      1339      2032       719      1886
 -1      1193    6    0    1
 -2       316       199       186       983       620       617       619      1899      1900      2033
 -1      1194    6    0    1
 -2       194       321       193       994       659       660       642      2034      1801      1800
 -1      1195    6    0    1
 -2      1056      1057       943       209      1470      1466      1469      1929      1930      2035
 -1      1196    6    0    1
 -2      1062       978      1061       278      1538      1532      1540      1845      1752      1844
 -1      1197    6    0    1
 -2       276       302      1052       320       842      1755      1808       839       843      1976
 -1      1198    6    0    1
 -2       256       251        67      1642       439       437       438      1703      1876      1650
 -1      1199    6    0    1
 -2       252       258       229       901       756       556       751      1973      1974      2036
 -1      1200    6    0    1
 -2      1015       970      1014       263      1498      1517      1516      2012      1955      2037
 -1      1201    6    0    1
 -2      1621       148       981       254      1627      1079      2016      2039      2038      2040
 -1      1202    6    0    1
 -2       998       173       185       189      2041       528      1933      1936       516       529
 -1      1203    6    0    1
 -2       278       978      1061       280      1752      1532      1844       847      1753      1950
 -1      1204    6    0    1
 -2      1041       272      1036       992      1748      1794      1133      1573      1750      1572
 -1      1205    6    0    1
 -2       307      1048       976       904      1803      1283      1713      1714      1281      1277
 -1      1206    6    0    1
 -2       960      1025        12       230      1100      1091      1098      2017      2018       358
 -1      1207    6    0    1
 -2       150      1620      1005       108      1637      1697      1232      1636      1628      1912
 -1      1208    6    0    1
 -2       258       252       251      1026       756       775       776      1972      1975      2042
 -1      1209    6    0    1
 -2       325       305       912       326       799      1688      1862       718       870      1746
 -1      1210    6    0    1
 -2       995       996      1052       321      1578      1485      1580      2022      1798      2021
 -1      1211    6    0    1
 -2       199       991       318       927      2043      1792       681      2044      1412      2045
 -1      1212    6    0    1
 -2       922       923       186       924      1388      2046      2047      1287      1389      2048
 -1      1213    6    0    1
 -2       186       905       922       924      2049      1286      2047      2048      1284      1287
 -1      1214    6    0    1
 -2       920       181       232       183      2005       578      1737      1797       573       579
 -1      1215    6    0    1
 -2       901       258       229      1023      1974       556      2036      1265      1784      1998
 -1      1216    6    0    1
 -2       180       915       232       233      1943      1944       570       569      2050       571
 -1      1217    6    0    1
 -2      1619      1007       150      1006      1826      1236      1635      1687      1238      1235
 -1      1218    6    0    1
 -2       311      1056       330       328      1859      1968       865       800      1928       736
 -1      1219    6    0    1
 -2       985       315       199       991      2051       687      1897      1414      1858      2043
 -1      1220    6    0    1
 -2      1045       303       987       291      1948      1911      1115      1991       838      2052
 -1      1221    6    0    1
 -2       327      1025      1059       294      2008      1094      1906       356      2014      2053
 -1      1222    6    0    1
 -2        68      1641       903       250      1655      1685      2054       441      1774      2055
 -1      1223    6    0    1
 -2       963       181       906       904      1925      2056      1279      1280      1926      1276
 -1      1224    6    0    1
 -2       180       179       304      1066       548       562       561      1942      1940      2027
 -1      1225    6    0    1
 -2       318       199       315       991       681       687       688      1792      2043      1858
 -1      1226    6    0    1
 -2        22       289       271      1040       386       391       389      1125      2057      1838
 -1      1227    6    0    1
 -2       267        26       287      1034       401       398       403      1848      1137      2058
 -1      1228    6    0    1
 -2       264      1014      1064       263      1892      1518      1893       789      2037      1820
 -1      1229    6    0    1
 -2       987      1045      1047       303      1115      1564      1338      1911      1948      1788
 -1      1230    6    0    1
 -2       322       910       911       326      1857      1323      1790       706      1767      1747
 -1      1231    6    0    1
 -2       304      1066      1038       961      2027      1509      1840      1852      1353      1507
 -1      1232    6    0    1
 -2      1028      1027       260      1029      1613      2059      1962      1614      1460      2000
 -1      1233    6    0    1
 -2      1029       178      1028      1030      2026      1884      1614      1162      2060      1611
 -1      1234    6    0    1
 -2      1620       253       312       107      1698       497      1736      1629       496       494
 -1      1235    6    0    1
 -2       950       951      1052       320      1402      1484      1483      1740      1741      1976
 -1      1236    6    0    1
 -2       986       264       305       325      1706       798      1690      1861       795       799
 -1      1237    6    0    1
 -2      1014       265      1015       263      2030      1732      1516      2037       792      2012
 -1      1238    6    0    1
 -2       319       150       108      1619      1824      1636       500      1827      1635      1634
 -1      1239    6    0    1
 -2       321       996       320       193      1798      1937       661       660      1799       662
 -1      1240    6    0    1
 -2      1014       970      1064       263      1517      1106      1518      2037      1955      1820
 -1      1241    6    0    1
 -2       180      1016       229      1023      2007      2061       554      1915      1264      1998
 -1      1242    6    0    1
 -2      1047       911       987       303      1327      1336      1338      1788      1789      1911
 -1      1243    6    0    1
 -2       194       994       938       931      2034      1431      2062      2063      1430      1426
 -1      1244    6    0    1
 -2       316       984       299      1050      2024      1864       866      2064      1553      1806
 -1      1245    6    0    1
 -2       930       206       326       203      1887       703      1766      1958       700       702
 -1      1246    6    0    1
 -2       961       232      1066       913      1738      1941      1353      1351      1739      1349
 -1      1247    6    0    1
 -2       285       327      1020       306       353      1905      1814       851       853      1851
 -1      1248    6    0    1
 -2       982      1621       981       254      2015      2016      1230      2065      2039      2040
 -1      1249    6    0    1
 -2      1024       177      1028      1023      1882      1786      1609      1600      1787      1608
 -1      1250    6    0    1
 -2       958       293       231       311      1966       758      1963      1856       762       760
 -1      1251    6    0    1
 -2       278      1020       978       306      1834      1537      1752       633      1851      1894
 -1      1252    6    0    1
 -2      1013       325       940       329      1999      2006      1341      1807       720      2066
 -1      1253    6    0    1
 -2       322       926       910       203      1880      1332      1857       705      2067      1959
 -1      1254    6    0    1
 -2       185       331       980       189       603      1743      1934       529       604      1935
 -1      1255    6    0    1
 -2       232       915       913       183      1944      1346      1739       579      2068      1796
 -1      1256    6    0    1
 -2       272       315       299      1050       823       827       826      1909      2069      1806
 -1      1257    6    0    1
 -2       970       263        14       283      1955       365      1101      1924       367       364
 -1      1258    6    0    1
 -2       315      1050       272       992      2069      1909       823      1761      1569      1750
 -1      1259    6    0    1
 -2       943       330      1056       209      1889      1968      1469      2035       733      1929
 -1      1260    6    0    1
 -2       997       998       185      1017      1377      1933      2070      1585      1548      2071
 -1      1261    6    0    1
 -2      1028      1023       258      1026      1608      1784      1783      1610      1266      1972
 -1      1262    6    0    1
 -2       256      1053      1018      1026      1702      1247      1701      2072      1273      1597
 -1      1263    6    0    1
 -2       990       989      1020       172      1478      1536      1565      2073      1993      1994
 -1      1264    6    0    1
 -2       913       232      1066       915      1739      1941      1349      1346      1944      1350
 -1      1265    6    0    1
 -2       189       989       172       306      2002      1993       517       521      1895       520
 -1      1266    6    0    1
 -2       276      1042       288       274      1793      1760       833       831      2074       385
 -1      1267    6    0    1
 -2        12       230      1025       294       358      2018      1091       354       359      2014
 -1      1268    6    0    1
 -2       220       127       965       966      1983      1209      1985      1681      1203      1210
 -1      1269    6    0    1
 -2       223       126       956       957      1986      1204      1987      1678      1198      1205
 -1      1270    6    0    1
 -2       286       270       272      1036       397       815       817      1765      2075      1794
 -1      1271    6    0    1
 -2       172      1020       990       306      1994      1565      2073       520      1851      2076
 -1      1272    6    0    1
 -2        28      1032       266      1031      1143      2077       404      1147      1148      2078
 -1      1273    6    0    1
 -2      1013       265      1014       325      1775      2030      1563      1999       796      1931
 -1      1274    6    0    1
 -2       255      1018      1643       942      2081      2079      2080      2082      1243      2083
 -1      1275    6    0    1
 -2       313       905      1049       983      1902      1291      1901      1990      1289      1292
 -1      1276    6    0    1
 -2      1015       265       311       263      1732       794      2011      2012       792       761
 -1      1277    6    0    1
 -2       987       303       305       290      1911       859      1772      1771       858       797
 -1      1278    6    0    1
 -2       960       292       293       295      2084       861      2031      2023       532       862
 -1      1279    6    0    1
 -2       313       984       316       983      1913      2024       623      1990      1550      1899
 -1      1280    6    0    1
 -2       950       937       925       323      1401      1311      1400      1718      1919      2085
 -1      1281    6    0    1
 -2         7       254       148       106       342      2038      1067       332       343      1622
 -1      1282    6    0    1
 -2        67      1643       255      1018      1648      2080       435      1823      2079      2081
 -1      1283    6    0    1
 -2       909       208       243      1009      2087       708      2086      1303      2088      2089
 -1      1284    6    0    1
 -2       947       184       175       916      2091       525      2090      1371      2092      2093
 -1      1285    6    0    1
 -2      1052       320       302       321      1976       843      1755      2021       661       868
 -1      1286    6    0    1
 -2       329       940      1057       945      2066      1455      1758      2004      1450      1456
 -1      1287    6    0    1
 -2       330       209       943       214       733      2035      1889       539       731      1890
 -1      1288    6    0    1
 -2       317       995       321       994      1922      2022       670      1992      1577      1801
 -1      1289    6    0    1
 -2       226       227       236       954       675       656       468      1668      2094      1667
 -1      1290    6    0    1
 -2       175       947      1065       174      2090      1475      1951       523      2095      1952
 -1      1291    6    0    1
 -2       259      1027      1028      1026      2096      1613      1782      1971      1598      1610
 -1      1292    6    0    1
 -2       231       970       958       311      2097      1494      1963       760      2010      1856
 -1      1293    6    0    1
 -2      1056       311      1015       328      1859      2011      1499      1928       800      1735
 -1      1294    6    0    1
 -2       978       189       282       278      1977       631      1751      1752       630       632
 -1      1295    6    0    1
 -2       179      1039       235      1038      2099      2098       563      1938      1606      1918
 -1      1296    6    0    1
 -2       180      1016       915       233      2007      1362      1943       569      2100      2050
 -1      1297    6    0    1
 -2       297       984      1049      1034      1863      1552      1830      1849      1555      1557
 -1      1298    6    0    1
 -2       331       282       980       189       634      1744      1743       604       631      1935
 -1      1299    6    0    1
 -2       260      1028       259      1027      1962      1782       787      2059      1613      2096
 -1      1300    6    0    1
 -2       317       993      1051       994      1979      1571      1923      1992      1432      1576
 -1      1301    6    0    1
 -2       234       170       296      1033       506       507       508      1945      1878      1879
 -1      1302    6    0    1
 -2       216        30       235      1054       414       415       417      1995      1155      2101
 -1      1303    6    0    1
 -2       252       903       251      1026      1978      2102       775      1975      1260      2042
 -1      1304    6    0    1
 -2      1050       992       315       991      1569      1761      2069      1559      1567      1858
 -1      1305    6    0    1
 -2       186       923       922       197      2046      1388      2047       615      2103      2104
 -1      1306    6    0    1
 -2      1015       958       970       311      1497      1494      1498      2011      1856      2010
 -1      1307    6    0    1
 -2       235      1039      1044      1038      2098      1617      1916      1918      1606      1616
 -1      1308    6    0    1
 -2       324        32       215      1030       422       419       423      2105      1163      2106
 -1      1309    6    0    1
 -2        35       942       255      1019      1168      2082       432      1068      1171      1927
 -1      1310    6    0    1
 -2       951       277       276       320      1694       835      1802      1741       840       839
 -1      1311    6    0    1
 -2       255       942      1643       159      2082      2083      2080      2107      1244      1649
 -1      1312    6    0    1
 -2      1045       987        17       291      1115      1110      1114      1991      2052       375
 -1      1313    6    0    1
 -2       301      1040       995      1051      1839      1581      1873      1819      1583      1579
 -1      1314    6    0    1
 -2       967       924       919       188      1382      1296      1383      2109      2108      2110
 -1      1315    6    0    1
 -2      1016       180       228       233      2007       567      2111      2100       569       568
 -1      1316    6    0    1
 -2       970       311       231       263      2010       760      2097      1955       761       366
 -1      1317    6    0    1
 -2        20       288      1042       274       384      1760      1119       380       385      2074
 -1      1318    6    0    1
 -2       270       286        24      1036       397       396       392      2075      1765      1131
 -1      1319    6    0    1
 -2       329       211       940       945       716      2112      2066      2004      2025      1450
 -1      1320    6    0    1
 -2      1027       259       256      1026      2096       785      2113      1598      1971      2072
 -1      1321    6    0    1
 -2      1048       268       976      1032      1831      1811      1283      1527      1832      1525
 -1      1322    6    0    1
 -2       996       937       950       193      1451      1401      1453      1799      1921      1920
 -1      1323    6    0    1
 -2       942      1018      1643       159      1243      2079      2083      1244      1242      1649
 -1      1324    6    0    1
 -2       252       903       901       902      1978      1257      1973      2114      1256      1255
 -1      1325    6    0    1
 -2       184       998       185       997      2115      1933       527      2116      1377      2070
 -1      1326    6    0    1
 -2       329       325       940       206       720      2006      2066       717       719      2032
 -1      1327    6    0    1
 -2      1059      1020      1060       327      1566      1599      1095      1906      1905      1904
 -1      1328    6    0    1
 -2       325      1013       265       329      1999      1775       796       720      1807       802
 -1      1329    6    0    1
 -2       979      1007      1005       312      1542      1237      1545      1810      1932      1776
 -1      1330    6    0    1
 -2       905       186       314       924      2049       616      1778      1284      2048      1997
 -1      1331    6    0    1
 -2       197       927       199       196      2117      2044       618       678      2118       679
 -1      1332    6    0    1
 -2       276      1046      1042       274      1860      1121      1793       831      2119      2074
 -1      1333    6    0    1
 -2       315       199       316       985       687       620       686      2051      1897      1898
 -1      1334    6    0    1
 -2      1034       297       984      1037      1849      1863      1555      1139      1865      1556
 -1      1335    6    0    1
 -2      1032       268       976      1035      1832      1811      1525      1145      1812      1526
 -1      1336    6    0    1
 -2       289       301       271      1040       822       820       391      2057      1839      1838
 -1      1337    6    0    1
 -2         7       981       148       254      1078      1079      1067       342      2040      2038
 -1      1338    6    0    1
 -2       324        33        32      1029       421        62       422      2120      1160      1161
 -1      1339    6    0    1
 -2       287       297       267      1034       808       806       403      2058      1849      1848
 -1      1340    6    0    1
 -2       936       243       208      1009      2122       708      2121      1322      2089      2088
 -1      1341    6    0    1
 -2       315       985      1050       991      2051      1554      2069      1858      1414      1559
 -1      1342    6    0    1
 -2       933       318       991       927      2123      1792      1413      1408      2045      1412
 -1      1343    6    0    1
 -2       315       272       273       992       823       819       824      1761      1750      1724
 -1      1344    6    0    1
 -2      1043       301       288       289      1874       856      1759      2124       822       388
 -1      1345    6    0    1
 -2       301      1043       995      1040      1874      1582      1873      1839      1127      1581
 -1      1346    6    0    1
 -2       286       297       287      1037       854       808       400      1762      1865      2125
 -1      1347    6    0    1
 -2       248       973       249       212      2127      2126       485       741      2128       745
 -1      1348    6    0    1
 -2       919       181       920       182      2129      2005      1294      1967       575      1960
 -1      1349    6    0    1
 -2       942       159       255      1019      1244      2107      2082      1171      1070      1927
 -1      1350    6    0    1
 -2      1053      1018       160      1642      1247      1241      1245      1704      1705      1653
 -1      1351    6    0    1
 -2       215       176       178      1030       545       540       546      2106      2130      2060
 -1      1352    6    0    1
 -2       175       948       947       916      2020      1373      2090      2093      1372      1371
 -1      1353    6    0    1
 -2       171       234       235      1033       505       512       416      1870      1945      1953
 -1      1354    6    0    1
 -2       984      1050       316       985      1553      2064      2024      1551      1554      1898
 -1      1355    6    0    1
 -2       287        26        25      1034       398        55       399      2058      1137      1138
 -1      1356    6    0    1
 -2       289        22        21      1040       386        51       387      2057      1125      1126
 -1      1357    6    0    1
 -2       194       932       931       190      2131      1423      2063       643      2132      2133
 -1      1358    6    0    1
 -2      1056       958      1015       311      1500      1497      1499      1859      1856      2011
 -1      1359    6    0    1
 -2       970       958       959       231      1494      1492      1103      2097      1963      1964
 -1      1360    6    0    1
 -2       924       314       906       188      1997      1996      1285      2108       580      2134
 -1      1361    6    0    1
 -2       193       937       323       191      1921      1919       650       638      2135       649
 -1      1362    6    0    1
 -2       208       909       936      1009      2087      1321      2121      2088      1303      1322
 -1      1363    6    0    1
 -2      1055       330       174       295      1969       530      2009      1854       534       533
 -1      1364    6    0    1
 -2       926       322       323       203      1880       704      1719      2067       705       654
 -1      1365    6    0    1
 -2       316       299       315      1050       866       827       686      2064      1806      2069
 -1      1366    6    0    1
 -2       940       206       930       936      2032      1887      1340      1422      2136      1320
 -1      1367    6    0    1
 -2       929       186       199       983      2137       617      2029      1392      2033      1900
 -1      1368    6    0    1
 -2       938       194       193       994      2062       642      1947      1431      2034      1800
 -1      1369    6    0    1
 -2       971       183       213       182      2139       588      2138      2140       574       587
 -1      1370    6    0    1
 -2       294       960      1059       292      2019      1503      2053       860      2084      1908
 -1      1371    6    0    1
 -2      1040       271        22      1041      1838       389      1125      1130      1795      1129
 -1      1372    6    0    1
 -2       267      1035        26      1034      1850      1141       401      1848      1142      1137
 -1      1373    6    0    1
 -2       319       185       331      1017       609       603       610      1956      2071      1957
 -1      1374    6    0    1
 -2       307       181       308       963       585       583       584      1804      1925      1716
 -1      1375    6    0    1
 -2       290        17       987       291       371      1110      1771       376       375      2052
 -1      1376    6    0    1
 -2       316      1050       315       985      2064      2069       686      1898      1554      2051
 -1      1377    6    0    1
 -2       199       927       318       196      2044      2045       681       679      2118       666
 -1      1378    6    0    1
 -2       327      1059        11      1060      1906      1093       352      1904      1095      1089
 -1      1379    6    0    1
 -2       185       999       218      1017      2142      2141       598      2071      1588      2143
 -1      1380    6    0    1
 -2       208       930       206       936      2144      1887       701      2121      1320      2136
 -1      1381    6    0    1
 -2       261       256       255      1018       784       440       434      2145      1701      2081
 -1      1382    6    0    1
 -2       996       321       995       994      1798      2022      1578      1454      1801      1577
 -1      1383    6    0    1
 -2       324      1029        32      1030      2120      1161       422      2105      1162      1163
 -1      1384    6    0    1
 -2      1039      1038       179      1022      1606      1938      2099      1605      1604      1939
 -1      1385    6    0    1
 -2       177      1024       176      1022      1882      2146       542      1883      1601      2147
 -1      1386    6    0    1
 -2       301       289      1043      1040       822      2124      1874      1839      2057      1127
 -1      1387    6    0    1
 -2       990       292       172       306      2148       519      2073      2076       522       520
 -1      1388    6    0    1
 -2      1034       287       297      1037      2058       808      1849      1139      2125      1865
 -1      1389    6    0    1
 -2       218       999       997      1017      2141      1586      2149      2143      1588      1585
 -1      1390    6    0    1
 -2       986       912      1013       325      1335      1342      1343      1861      1862      1999
 -1      1391    6    0    1
 -2       286       287        25      1037       400       399       395      1762      2125      1134
 -1      1392    6    0    1
 -2        77       217       298      1000       447       448       337      2151      2150      2152
 -1      1393    6    0    1
 -2      1043       288        21       289      1759       383      1122      2124       388       387
 -1      1394    6    0    1
 -2      1061       280       281       279      1950       783      2153      1847       848       347
 -1      1395    6    0    1
 -2       178      1030       176      1024      2060      2130       540      1954      1612      2146
 -1      1396    6    0    1
 -2       176       180       177      1022       543       544       542      2147      1914      1883
 -1      1397    6    0    1
 -2       914       913       915       183      1344      1346      1345      1833      1796      2068
 -1      1398    6    0    1
 -2      1045       291        18       275      1991       374      1113      1949       379       377
 -1      1399    6    0    1
 -2       184       947       998       916      2091      1374      2115      2092      1371      1375
 -1      1400    6    0    1
 -2      1034        25       287      1037      1138       399      2058      1139      1134      2125
 -1      1401    6    0    1
 -2      1043       289        21      1040      2124       387      1122      1127      2057      1126
 -1      1402    6    0    1
 -2      1055      1065       947       174      1482      1475      1480      2009      1952      2095
 -1      1403    6    0    1
 -2      1001       118        78       119      1172       876      2154      1173       133       878
 -1      1404    6    0    1
 -2       272      1036       270      1041      1794      2075       815      1748      1133      2155
 -1      1405    6    0    1
 -2        23       271       270      1041       390       394       393      1128      1795      2155
 -1      1406    6    0    1
 -2       966       223       222       220      1679       683      2156      1681       474       629
 -1      1407    6    0    1
 -2       991       993       318       933      1438      1726      1792      1413      1429      2123
 -1      1408    6    0    1
 -2      1037        24       286      1036      1135       396      1762      1136      1131      1765
 -1      1409    6    0    1
 -2       970       231        14       263      2097       360      1101      1955       366       365
 -1      1410    6    0    1
 -2       999       185       310      1017      2142       608      2157      1588      2071      2158
 -1      1411    6    0    1
 -2      1042        20      1043       288      1119      1123      1124      1760       384      1759
 -1      1412    6    0    1
 -2       947       174       173       172      2095       514      2159      2160       513       515
 -1      1413    6    0    1
 -2       304       232       180      1066       572       570       561      2027      1941      1942
 -1      1414    6    0    1
 -2       937       191       193       190      2135       638      1921      2161       637       639
 -1      1415    6    0    1
 -2       200       916       917       918      2163      1364      2162      2164      1366      1365
 -1      1416    6    0    1
 -2       235      1044       171      1033      1916      2165       416      1953      1153      1870
 -1      1417    6    0    1
 -2       980       185       998      1017      1934      1933      1546      1547      2071      1548
 -1      1418    6    0    1
 -2       229      1016       228       901      2061      2111       566      2036      1263      2166
 -1      1419    6    0    1
 -2       985       316       984       983      1898      2024      1551      1421      1899      1550
 -1      1420    6    0    1
 -2         7       148         1       106      1067       153        36       332      1622       111
 -1      1421    6    0    1
 -2       202       916       200       918      2167      2163       600      2168      1366      2164
 -1      1422    6    0    1
 -2       958       295       293       311      1853       862      1966      1856       864       762
 -1      1423    6    0    1
 -2       294      1059       327       292      2053      1906       356       860      1908       863
 -1      1424    6    0    1
 -2       969       968        87       221      1215      2169      2170      2172      2171       475
 -1      1425    6    0    1
 -2        34       284       260       941       424       431       429      1165      2173      2174
 -1      1426    6    0    1
 -2       901       229      1016      1023      2036      2061      1263      1265      1998      1264
 -1      1427    6    0    1
 -2       171        29      1033      1044       408      1151      1870      2165      1150      1153
 -1      1428    6    0    1
 -2       266      1032       170      1031      2077      1781       411      2078      1148      2175
 -1      1429    6    0    1
 -2        27       267       266      1035       402       406       405      1140      1850      2176
 -1      1430    6    0    1
 -2       191       190       937       908       637      2161      2135      2178      2177      1312
 -1      1431    6    0    1
 -2       292       990      1020       306      2148      1565      1907       522      2076      1851
 -1      1432    6    0    1
 -2      1018       261       256      1027      2145       784      1701      1461      2179      2113
 -1      1433    6    0    1
 -2       270        24        23      1036       392        53       393      2075      1131      1132
 -1      1434    6    0    1
 -2         7       281       981       254       340      2180      1078       342       344      2040
 -1      1435    6    0    1
 -2       228       901      1016      1004      2166      1263      2111      2181      1258      1262
 -1      1436    6    0    1
 -2       906       181       920       919      2056      2005      1295      1293      2129      1294
 -1      1437    6    0    1
 -2      1042        19        20       274      1120        49      1119      2074       381       380
 -1      1438    6    0    1
 -2       179       216       235      1039       549       417       563      2099      2182      2098
 -1      1439    6    0    1
 -2      1007      1006       319      1017      1238      1910      1825      1549      1591      1956
 -1      1440    6    0    1
 -2       178      1029       324      1030      2026      2120       558      2060      1162      2105
 -1      1441    6    0    1
 -2       978       989       980       189      1535      1534      1531      1977      2002      1935
 -1      1442    6    0    1
 -2       261      1018       255       942      2145      2081       434      2183      1243      2082
 -1      1443    6    0    1
 -2       266       170        28      1031       411       409       404      2078      2175      1147
 -1      1444    6    0    1
 -2       947       173       989       172      2159      2184      1476      2160       515      1993
 -1      1445    6    0    1
 -2       188       967       924       187      2109      1382      2108       612      2185      2186
 -1      1446    6    0    1
 -2       284        34        33       941       424        63       425      2173      1165      1166
 -1      1447    6    0    1
 -2      1063         8         9       279      1080        38      1081      2187       345       346
 -1      1448    6    0    1
 -2      1046       276       275       274      1860       832      1773      2119       831       382
 -1      1449    6    0    1
 -2      1014      1013      1015       265      1563      1592      1516      2030      1775      1732
 -1      1450    6    0    1
 -2       229       258       177      1023       556       555       553      1998      1784      1787
 -1      1451    6    0    1
 -2        12       959       960       230      1097      1099      1098       358      2188      2017
 -1      1452    6    0    1
 -2       228      1004      1016       233      2181      1262      2111       568      2189      2100
 -1      1453    6    0    1
 -2       171       170       234      1033       410       506       505      1870      1878      1945
 -1      1454    6    0    1
 -2       266        28        27      1032       404        57       405      2077      1143      1144
 -1      1455    6    0    1
 -2       329       206       940       211       717      2032      2066       716       715      2112
 -1      1456    6    0    1
 -2       186       188       924       187       611      2108      2048       613       612      2186
 -1      1457    6    0    1
 -2      1028      1030       178      1024      1611      2060      1884      1609      1612      1954
 -1      1458    6    0    1
 -2        78       217        77      1001       446       447        92      2154      2190      2191
 -1      1459    6    0    1
 -2       959       958       960       293      1492      1493      1099      1965      1966      2031
 -1      1460    6    0    1
 -2       179       235       234      1038       563       512       564      1938      1918      1841
 -1      1461    6    0    1
 -2       290       987       303       291      1771      1911       858       376      2052       838
 -1      1462    6    0    1
 -2      1012       214       202       948      2193       538      2192      1376      1970      2194
 -1      1463    6    0    1
 -2       271        23        22      1041       390        52       389      1795      1128      1129
 -1      1464    6    0    1
 -2       910       326       322       203      1767       706      1857      1959       702       705
 -1      1465    6    0    1
 -2      1058      1039       176      1022      1607      2195      2196      1603      1605      2147
 -1      1466    6    0    1
 -2       943       209      1057       945      2035      1930      1466      1463      2003      1456
 -1      1467    6    0    1
 -2       938       908       190       952      1313      2177      2197      1315      1316      2198
 -1      1468    6    0    1
 -2        26       267        27      1035       401       402        56      1141      1850      1140
 -1      1469    6    0    1
 -2       949       236       946       954      1665      2199      1306      1196      1667      1473
 -1      1470    6    0    1
 -2       990       292       960       295      2148      2084      1502      2200       532      2023
 -1      1471    6    0    1
 -2      1004       915      1016       233      1360      1362      1262      2189      2050      2100
 -1      1472    6    0    1
 -2       201       205        79       918       454       449       455      2202      2201      2203
 -1      1473    6    0    1
 -2       176      1039       179      1022      2195      2099       547      2147      1605      1939
 -1      1474    6    0    1
 -2       901       228       252       902      2166       750      1973      1255      2204      2114
 -1      1475    6    0    1
 -2       148       254      1621       106      2038      2039      1627      1622       343      1626
 -1      1476    6    0    1
 -2       265      1015       311       328      1732      2011       794       801      1735       800
 -1      1477    6    0    1
 -2      1023       901       258      1026      1265      1974      1784      1266      1261      1972
 -1      1478    6    0    1
 -2       324       178       284      1029       558       559       426      2120      2026      2001
 -1      1479    6    0    1
 -2       185       218       184       997       598       599       527      2070      2149      2116
 -1      1480    6    0    1
 -2       215      1058       176      1030      2205      2196       545      2106      1164      2130
 -1      1481    6    0    1
 -2       229       180       228      1016       554       567       566      2061      2007      2111
 -1      1482    6    0    1
 -2      1055       990       960       295      1481      1502      1496      1854      2200      2023
 -1      1483    6    0    1
 -2       308       232       304       961       582       572       763      1717      1738      1852
 -1      1484    6    0    1
 -2        69      1003      1002       300      2206      1254      2028       444      2207      1980
 -1      1485    6    0    1
 -2       186       924       923       187      2048      1389      2046       613      2186      2208
 -1      1486    6    0    1
 -2       107      1621       982       254      1625      2015      1868       492      2039      2065
 -1      1487    6    0    1
 -2       176      1030      1058      1024      2130      1164      2196      2146      1612      1602
 -1      1488    6    0    1
 -2        24       286        25      1037       396       395        54      1135      1762      1134
 -1      1489    6    0    1
 -2      1014       264       265       263      1892       793      2030      2037       789       792
 -1      1490    6    0    1
 -2        77      1001       217      1000      2191      2190       447      2151      1174      2150
 -1      1491    6    0    1
 -2        21      1043        20       288      1122      1123        50       383      1759       384
 -1      1492    6    0    1
 -2      1046       275        19       274      1773       378      1116      2119       382       381
 -1      1493    6    0    1
 -2       969        87        86       221      2170       101      2209      2172       475       476
 -1      1494    6    0    1
 -2        17       987        16       290      1110      1111        46       371      1771       372
 -1      1495    6    0    1
 -2      1003       131         3         5      1072       872      2210      1071       146       117
 -1      1496    6    0    1
 -2      1054      1044       216      1039      1156      2211      1995      1618      1617      2182
 -1      1497    6    0    1
 -2       270      1036        23      1041      2075      1132       393      2155      1133      1128
 -1      1498    6    0    1
 -2       261      1027      1018       942      2179      1461      2145      2183      1458      1243
 -1      1499    6    0    1
 -2      1064        15       988       262      1104      1108      1109      1821       369      1867
 -1      1500    6    0    1
 -2       927       197       928       196      2117      2212      1405      2118       678      2213
 -1      1501    6    0    1
 -2        67       160      1018      1642      1652      1241      1823      1650      1653      1705
 -1      1502    6    0    1
 -2      1066       180      1022      1016      1942      1914      1596      1363      2007      1594
 -1      1503    6    0    1
 -2        19      1046        18       275      1116      1117        48       378      1773       377
 -1      1504    6    0    1
 -2       268      1032       266      1035      1832      2077       509      1812      1145      2176
 -1      1505    6    0    1
 -2      1027       256      1018      1026      2113      1701      1461      1598      2072      1597
 -1      1506    6    0    1
 -2       235      1054        30      1044      2101      1155       415      1916      1156      1149
 -1      1507    6    0    1
 -2       281      1061       981       280      2153      1082      2180       783      1950      1946
 -1      1508    6    0    1
 -2       249      1008       974       257      2215      1524      2214       746      2216      2217
 -1      1509    6    0    1
 -2       980       331       185      1017      1743       603      1934      1547      1957      2071
 -1      1510    6    0    1
 -2       266      1032        27      1035      2077      1144       405      2176      1145      1140
 -1      1511    6    0    1
 -2       270       271       272      1041       394       816       815      2155      1795      1748
 -1      1512    6    0    1
 -2       179       180       176      1022       548       543       547      1939      1914      2147
 -1      1513    6    0    1
 -2       244       245       246       939       726       739       459      1674      2218      1673
 -1      1514    6    0    1
 -2       971       213       968       182      2138      2219      1386      2140       587      2220
 -1      1515    6    0    1
 -2      1062         9        10       285      1086        39      1085      1815       348       349
 -1      1516    6    0    1
 -2       173       998       185       184      2041      1933       528       526      2115       527
 -1      1517    6    0    1
 -2       919       914       971       182      1356      1357      1358      1967      1961      2140
 -1      1518    6    0    1
 -2       912       911       910       326      1324      1323      1325      1746      1747      1767
 -1      1519    6    0    1
 -2       218       997       185      1017      2149      2070       598      2143      1585      2071
 -1      1520    6    0    1
 -2       247       944      1012      1011      2222      1472      2221      2223      1448      1381
 -1      1521    6    0    1
 -2       285        10      1060       327       349      1088      1903       353       351      1904
 -1      1522    6    0    1
 -2       247       214       202      1012       697       538       695      2221      2193      2192
 -1      1523    6    0    1
 -2       990      1055       947       174      1481      1480      1477      2224      2009      2095
 -1      1524    6    0    1
 -2      1066       304       232       961      2027       572      1941      1353      1852      1738
 -1      1525    6    0    1
 -2      1060      1062        10       285      1090      1085      1088      1903      1815       349
 -1      1526    6    0    1
 -2        69       162      1002      1003      1660      1253      2028      2206      1251      1254
 -1      1527    6    0    1
 -2       176      1024      1058      1022      2146      1602      2196      2147      1601      1603
 -1      1528    6    0    1
 -2       915      1008       914       183      1354      1355      1345      2068      2225      1833
 -1      1529    6    0    1
 -2       260       256       261      1027       786       784       430      2059      2113      2179
 -1      1530    6    0    1
 -2       916       202      1012       918      2167      2192      1369      1366      2168      1370
 -1      1531    6    0    1
 -2        15       262      1064       283       369      1821      1104       363       370      1822
 -1      1532    6    0    1
 -2       281       280       981       254       783      1946      2180       344       778      2040
 -1      1533    6    0    1
 -2      1001        78       118        77      2154       876      1172      2191        92       875
 -1      1534    6    0    1
 -2       228       902       901      1004      2204      1255      2166      2181      1259      1258
 -1      1535    6    0    1
 -2       260       259       256      1027       787       785       786      2059      2096      2113
 -1      1536    6    0    1
 -2       294       293       960       292       759      2031      2019       860       861      2084
 -1      1537    6    0    1
 -2       216      1058        31      1054      2226      1158       413      1995      1159      1154
 -1      1538    6    0    1
 -2       120      1011        79       918      1178      2227       880      1180      1182      2203
 -1      1539    6    0    1
 -2       172       990       174       292      2073      2224       513       519      2148       518
 -1      1540    6    0    1
 -2       981         8      1061       281      1077      1083      1082      2180       341      2153
 -1      1541    6    0    1
 -2       183       971       914       182      2139      1357      1833       574      2140      1961
 -1      1542    6    0    1
 -2      1001        77       118      1000      2191       875      1172      1174      2151      1075
 -1      1543    6    0    1
 -2       960      1059      1025       294      1503      1094      1100      2019      2053      2014
 -1      1544    6    0    1
 -2       260       261        34       941       430       428       429      2174      2228      1165
 -1      1545    6    0    1
 -2       932       938       931       190      1427      1426      1423      2132      2197      2133
 -1      1546    6    0    1
 -2      1062      1061      1063       279      1540      1084      1087      1846      1847      2187
 -1      1547    6    0    1
 -2       185       309       218       999       606       605       598      2142      2229      2141
 -1      1548    6    0    1
 -2       904       314       906       905      1777      1996      1276      1274      1778      1275
 -1      1549    6    0    1
 -2       982      1005       149      1620      1233      1231      1228      1696      1697      1630
 -1      1550    6    0    1
 -2       925       323       937       191      2085      1919      1311      2230       649      2135
 -1      1551    6    0    1
 -2       251      1053       256      1026      1875      1702       439      2042      1273      2072
 -1      1552    6    0    1
 -2      1021      1008       974       249      1521      1524      1523      2231      2215      2214
 -1      1553    6    0    1
 -2      1059       990      1020       292      1504      1565      1566      1908      2148      1907
 -1      1554    6    0    1
 -2       930       936       208       909      1320      2121      2144      1319      1321      2087
 -1      1555    6    0    1
 -2       937       190       938       908      2161      2197      1314      1312      2177      1313
 -1      1556    6    0    1
 -2        19      1042      1046       274      1120      1121      1116       381      2074      2119
 -1      1557    6    0    1
 -2       929       922       186       983      1390      2047      2137      1392      1288      2033
 -1      1558    6    0    1
 -2      1013       940      1057       329      1341      1455      1457      1807      2066      1758
 -1      1559    6    0    1
 -2       902       974      1004       238      1268      1271      1259      2233      2232      2234
 -1      1560    6    0    1
 -2       149       148       982      1621       154      1229      1228      1632      1627      2015
 -1      1561    6    0    1
 -2        66       255        67      1643       433       435        72      1647      2080      1648
 -1      1562    6    0    1
 -2       997       184       998       916      2116      2115      1377      1367      2092      1375
 -1      1563    6    0    1
 -2       310       185       319      1017       608       609       501      2158      2071      1956
 -1      1564    6    0    1
 -2       211       245       207       945       723       722       714      2025      2235      2236
 -1      1565    6    0    1
 -2       933       955       932       196      1416      1433      1424      2238      2237      2239
 -1      1566    6    0    1
 -2      1621       254       107       106      2039       492      1625      1626       343       112
 -1      1567    6    0    1
 -2       982       979      1005       253      1543      1545      1233      1700      1871      1699
 -1      1568    6    0    1
 -2       128        87       968       972       896      2169      1214      1212      1720      1216
 -1      1569    6    0    1
 -2       292       990       174       295      2148      2224       518       532      2200       533
 -1      1570    6    0    1
 -2       329      1057       328       209      1758      1734       734       732      1930       735
 -1      1571    6    0    1
 -2       925       191       937       908      2230      2135      1311      1309      2178      1312
 -1      1572    6    0    1
 -2       121        80       120      1011       882       879       135      1179      2240      1178
 -1      1573    6    0    1
 -2       931       194       933       932      2063      2241      1425      1423      2131      1424
 -1      1574    6    0    1
 -2       943       210       209       945      2242       729      2035      1463      2243      2003
 -1      1575    6    0    1
 -2       216       179       176      1039       549       547       550      2182      2099      2195
 -1      1576    6    0    1
 -2        11      1060        10       327      1089      1088        40       352      1904       351
 -1      1577    6    0    1
 -2       162      1003        70       163      1251      2244      1661       168      1073      1646
 -1      1578    6    0    1
 -2      1053       251       903      1026      1875      2102      1250      1273      2042      1260
 -1      1579    6    0    1
 -2       231       959       230       293      1964      2188       362       758      1965       757
 -1      1580    6    0    1
 -2       945       245       207       934      2235       722      2236      1444      2245      2246
 -1      1581    6    0    1
 -2       929       927       199       197      1407      2044      2029      2247      2117       618
 -1      1582    6    0    1
 -2      1062      1063         9       279      1087      1081      1086      1846      2187       346
 -1      1583    6    0    1
 -2      1045        18      1046       275      1113      1117      1118      1949       377      1773
 -1      1584    6    0    1
 -2       181       919       906       188      2129      1293      2056       577      2110      2134
 -1      1585    6    0    1
 -2       972       128        88       129      1212       895      2013      1213       143       898
 -1      1586    6    0    1
 -2       176       177       178      1024       542       541       540      2146      1882      1954
 -1      1587    6    0    1
 -2      1021        89       130       129      2248       900      1218      1217       897       144
 -1      1588    6    0    1
 -2       924       186       314       188      2048       616      1997      2108       611       580
 -1      1589    6    0    1
 -2       318       927       933       196      2045      1408      2123       666      2118      2238
 -1      1590    6    0    1
 -2       171        28       170      1031       407       409       410      1869      1147      2175
 -1      1591    6    0    1
 -2       255       256        67      1018       440       438       435      2081      1701      1823
 -1      1592    6    0    1
 -2       309       185       310       999       606       608       607      2229      2142      2157
 -1      1593    6    0    1
 -2       312       979       282       253      1810      1745       782       497      1871       781
 -1      1594    6    0    1
 -2       316       186       313       983       619       622       623      1899      2033      1990
 -1      1595    6    0    1
 -2       317       321       194       994       670       659       669      1992      1801      2034
 -1      1596    6    0    1
 -2       967       187       188       219      2185       612      2109      2249       624       590
 -1      1597    6    0    1
 -2       186       905       313       983      2049      1902       622      2033      1289      1990
 -1      1598    6    0    1
 -2       110         4       298       152       116       338       339      1624      1623      2250
 -1      1599    6    0    1
 -2       924       906       919       188      1285      1293      1296      2108      2134      2110
 -1      1600    6    0    1
 -2        30       171       235      1044       412       416       415      1149      2165      1916
 -1      1601    6    0    1
 -2       268       266       267      1035       509       406       803      1812      2176      1850
 -1      1602    6    0    1
 -2        16       987       988       290      1111      1112      1107       372      1771      1709
 -1      1603    6    0    1
 -2       160      1643      1018       159      1654      2079      1241       165      1649      1242
 -1      1604    6    0    1
 -2       175       202       214       948       535       538       537      2020      2194      1970
 -1      1605    6    0    1
 -2      1003        69        70       300      2206        75      2244      2207       444       334
 -1      1606    6    0    1
 -2       319      1619       310      1006      1827      1723       501      1910      1687      2251
 -1      1607    6    0    1
 -2       970        13        14       231      1102        43      1101      2097       361       360
 -1      1608    6    0    1
 -2       249       212      1008       257       745      2252      2215       746       743      2216
 -1      1609    6    0    1
 -2       194       993       317       994      2253      1979       669      2034      1432      1992
 -1      1610    6    0    1
 -2      1058       215        32      1030      2205       419      1157      1164      2106      1163
 -1      1611    6    0    1
 -2       955       933       928       196      1416      1409      1417      2237      2238      2213
 -1      1612    6    0    1
 -2      1027       941       260      1029      1459      2174      2059      1460      1167      2000
 -1      1613    6    0    1
 -2       194       195       932       190       644      2254      2131       643       645      2132
 -1      1614    6    0    1
 -2       923       197       186       187      2103       615      2046      2208       614       613
 -1      1615    6    0    1
 -2      1008       183       915       233      2225      2068      1354      2255       596      2050
 -1      1616    6    0    1
 -2       933       993       194       931      1429      2253      2241      1425      1428      2063
 -1      1617    6    0    1
 -2      1054       235       216      1044      2101       417      1995      1156      1916      2211
 -1      1618    6    0    1
 -2       957       226       224       223      1676       673      2256      1678       471       685
 -1      1619    6    0    1
 -2       196       955       932       195      2237      1433      2239       665      2257      2254
 -1      1620    6    0    1
 -2       194       196       932       195       664      2239      2131       644       665      2254
 -1      1621    6    0    1
 -2       993       194       318       933      2253       667      1726      1429      2241      2123
 -1      1622    6    0    1
 -2       204       208       243       909       698       708       707      2258      2087      2086
 -1      1623    6    0    1
 -2       925       926       950       323      1331      1399      1400      2085      1719      1718
 -1      1624    6    0    1
 -2       200       201       202       918       690       689       600      2164      2202      2168
 -1      1625    6    0    1
 -2      1056      1065      1055       330      1471      1482      1501      1968      1888      1969
 -1      1626    6    0    1
 -2       969        87       968       128      2170      2169      1215      1208       896      1214
 -1      1627    6    0    1
 -2       304       179       234      1038       562       564       565      1840      1938      1841
 -1      1628    6    0    1
 -2       261       942        34       941      2183      1169       428      2228      1170      1165
 -1      1629    6    0    1
 -2       902       228       252       238      2204       750      2114      2233       754       753
 -1      1630    6    0    1
 -2       258       256       259      1026       777       785       557      1972      2072      1971
 -1      1631    6    0    1
 -2      1641       162       903       250      1662      1249      1685      1774      2259      2055
 -1      1632    6    0    1
 -2      1055       174       990       295      2009      2224      1481      1854       533      2200
 -1      1633    6    0    1
 -2       907       204       242       243      2261       710      2260      2262       707       711
 -1      1634    6    0    1
 -2       176      1058       216      1039      2196      2226       550      2195      1607      2182
 -1      1635    6    0    1
 -2       247       246       210       944       696       740       738      2222      2263      2264
 -1      1636    6    0    1
 -2       317       194       318       993       669       667       668      1979      2253      1726
 -1      1637    6    0    1
 -2       991       199       985       927      2043      1897      1414      1412      2044      1410
 -1      1638    6    0    1
 -2       960       294       230       293      2019       359      2017      2031       759       757
 -1      1639    6    0    1
 -2       201      1012       202       918      2265      2192       689      2202      1370      2168
 -1      1640    6    0    1
 -2       159        66       255      1019      1644       433      2107      1070      1754      1927
 -1      1641    6    0    1
 -2       183       232       915       233       579      1944      2068       596       571      2050
 -1      1642    6    0    1
 -2         9       285      1062       279       348      1815      1086       346       350      1846
 -1      1643    6    0    1
 -2       202       948       175       916      2194      2020       535      2167      1372      2093
 -1      1644    6    0    1
 -2      1003        70         3       300      2244        76      2210      2207       334       335
 -1      1645    6    0    1
 -2       257      1004       974       238      2266      1271      2217       755      2234      2232
 -1      1646    6    0    1
 -2       123        82       122      1010       886       883       137      1187      1836      1186
 -1      1647    6    0    1
 -2       941       284       260      1029      2173       431      2174      1167      2001      2000
 -1      1648    6    0    1
 -2       194       931       938       190      2063      1426      2062       643      2133      2197
 -1      1649    6    0    1
 -2       215        32        31      1058       419        61       418      2205      1157      1158
 -1      1650    6    0    1
 -2       933       932       194       196      1424      2131      2241      2238      2239       664
 -1      1651    6    0    1
 -2      1004       974      1008       257      1271      1524      1361      2266      2217      2216
 -1      1652    6    0    1
 -2       162        69        70      1003      1660        75      1661      1251      2206      2244
 -1      1653    6    0    1
 -2       211       209       210       945       727       729       728      2025      2003      2243
 -1      1654    6    0    1
 -2       312      1005       979       253      1776      1545      1810       497      1699      1871
 -1      1655    6    0    1
 -2       925       910       926       203      1330      1332      1331      2267      1959      2067
 -1      1656    6    0    1
 -2       989       172       173       189      1993       515      2184      2002       517       516
 -1      1657    6    0    1
 -2       936       945       207       934      1443      2236      2268      1441      1444      2246
 -1      1658    6    0    1
 -2       955       195       196       224      2257       665      2237      2269       671       672
 -1      1659    6    0    1
 -2       982      1620       149       107      1696      1630      1228      1868      1629      1631
 -1      1660    6    0    1
 -2        80       246        79      1011       452       453        94      2240      2270      2227
 -1      1661    6    0    1
 -2        81       121       122       939       881       136       884      1691      1183      1184
 -1      1662    6    0    1
 -2       937       193       938       190      1921      1947      1314      2161       639      2197
 -1      1663    6    0    1
 -2       908       192       190       952      2271       635      2177      1316      2272      2198
 -1      1664    6    0    1
 -2       968       967       919       219      1384      1383      1385      2273      2249      2274
 -1      1665    6    0    1
 -2       188       181       919       182       577      2129      2110       576       575      1967
 -1      1666    6    0    1
 -2        68       903       251       250      2054      2102       436       441      2055       443
 -1      1667    6    0    1
 -2       919       182       968       219      1967      2220      1385      2274       589      2273
 -1      1668    6    0    1
 -2       215        31       216      1058       418       413       420      2205      1158      2226
 -1      1669    6    0    1
 -2       243      1009       936       935      2089      1322      2122      2275      1449      1440
 -1      1670    6    0    1
 -2       929       928       927       197      1406      1405      1407      2247      2212      2117
 -1      1671    6    0    1
 -2       243       244       242       935       724       462       711      2275      2276      2277
 -1      1672    6    0    1
 -2       310      1006       999      1017      2251      1590      2157      2158      1591      1588
 -1      1673    6    0    1
 -2      1003         3        70       163      2210        76      2244      1073      1645      1646
 -1      1674    6    0    1
 -2       227       952       946       954      2279      1317      2278      2094      1474      1473
 -1      1675    6    0    1
 -2       209       210       943       214       729      2242      2035       731       730      1890
 -1      1676    6    0    1
 -2       905       186       922       983      2049      2047      1286      1289      2033      1288
 -1      1677    6    0    1
 -2         8       981         7       281      1077      1078        37       341      2180       340
 -1      1678    6    0    1
 -2       930       208       203       909      2144       699      1958      1319      2087      2280
 -1      1679    6    0    1
 -2       972        88       128        87      2013       895      1212      1720       102       896
 -1      1680    6    0    1
 -2       912       930       940       206      1328      1340      1339      1886      1887      2032
 -1      1681    6    0    1
 -2       934       245       207       935      2245       722      2246      1439      2281      2282
 -1      1682    6    0    1
 -2       929       964       928       197      1394      1415      1406      2247      2283      2212
 -1      1683    6    0    1
 -2       319      1006       310      1017      1910      2251       501      1956      1591      2158
 -1      1684    6    0    1
 -2       938       190       932       952      2197      2132      1427      1315      2198      1434
 -1      1685    6    0    1
 -2       964       929       923       197      1394      1391      1395      2283      2247      2103
 -1      1686    6    0    1
 -2       202       175       184       916       535       525       536      2167      2093      2092
 -1      1687    6    0    1
 -2       127        87        86       969       893       101       894      1207      2170      2209
 -1      1688    6    0    1
 -2       909       243       204      1009      2086       707      2258      1303      2089      2284
 -1      1689    6    0    1
 -2      1045        17        18       291      1114        47      1113      1991       375       374
 -1      1690    6    0    1
 -2       204       907       909      1009      2261      1300      2258      2284      1304      1303
 -1      1691    6    0    1
 -2      1004       257       228       238      2266       752      2181      2234       755       754
 -1      1692    6    0    1
 -2       186       922       929       197      2047      1390      2137       615      2104      2247
 -1      1693    6    0    1
 -2       237       204       242       907       655       710       709      2285      2261      2260
 -1      1694    6    0    1
 -2       310      1006       151      1000      2251      1234      2286      2287      1240      1239
 -1      1695    6    0    1
 -2       959        12        13       230      1097        42      1096      2188       358       357
 -1      1696    6    0    1
 -2       934       207       936       935      2246      2268      1441      1439      2282      1440
 -1      1697    6    0    1
 -2      1044       235       216      1039      1916       417      2211      1617      2098      2182
 -1      1698    6    0    1
 -2       990      1059       960       292      1504      1503      1502      2148      1908      2084
 -1      1699    6    0    1
 -2       971       968       919       182      1386      1385      1358      2140      2220      1967
 -1      1700    6    0    1
 -2       994       194       993       931      2034      2253      1432      1430      2063      1428
 -1      1701    6    0    1
 -2       925       909       191       908      1310      2288      2230      1309      1299      2178
 -1      1702    6    0    1
 -2       929       199       186       197      2029       617      2137      2247       618       615
 -1      1703    6    0    1
 -2       194       938       193       190      2062      1947       642       643      2197       639
 -1      1704    6    0    1
 -2       207       208       206       936       712       701       713      2268      2121      2136
 -1      1705    6    0    1
 -2       902       240       974       238      2290      2289      1268      2233       766      2232
 -1      1706    6    0    1
 -2       204       908       909       907      2291      1299      2258      2261      1298      1300
 -1      1707    6    0    1
 -2       929       985       199       927      1411      1897      2029      1407      1410      2044
 -1      1708    6    0    1
 -2       974       239       249       257      2292       490      2214      2217       769       746
 -1      1709    6    0    1
 -2       239       257       974       238       769      2217      2292       768       755      2232
 -1      1710    6    0    1
 -2       971       914      1008       183      1357      1355      1359      2139      1833      2225
 -1      1711    6    0    1
 -2       245       211       210       945       723       728       737      2235      2025      2243
 -1      1712    6    0    1
 -2        78       921       205      1001      2294      2293       450      2154      1177      2295
 -1      1713    6    0    1
 -2       253       107       982       254       496      1868      1700       495       492      2065
 -1      1714    6    0    1
 -2       930       910       925       203      1329      1330      1318      1958      1959      2267
 -1      1715    6    0    1
 -2       971       212       213       183      2296       594      2138      2139       595       588
 -1      1716    6    0    1
 -2      1008       915      1004       233      1354      1360      1361      2255      2050      2189
 -1      1717    6    0    1
 -2       203       208       204       909       699       698       653      2280      2087      2258
 -1      1718    6    0    1
 -2        79       120        80      1011       880       879        94      2227      1178      2240
 -1      1719    6    0    1
 -2       127        86       126       966       894       892       141      1203      1684      1202
 -1      1720    6    0    1
 -2       251       903       252       250      2102      1978       775       443      2055       772
 -1      1721    6    0    1
 -2       996       938       937       193      1452      1314      1451      1799      1947      1921
 -1      1722    6    0    1
 -2      1064        14        15       283      1105        44      1104      1822       364       363
 -1      1723    6    0    1
 -2        13       970       959       231      1102      1103      1096       361      2097      1964
 -1      1724    6    0    1
 -2       926       323       925       203      1719      2085      1331      2067       654      2267
 -1      1725    6    0    1
 -2       298       151       110       152      2297      1638       339      2250       157      1624
 -1      1726    6    0    1
 -2       214       948      1012       944      1970      1376      2193      2298      1465      1472
 -1      1727    6    0    1
 -2       923       929       922       197      1391      1390      1388      2103      2247      2104
 -1      1728    6    0    1
 -2       313       186       314       905       622       616       621      1902      2049      1778
 -1      1729    6    0    1
 -2       960       230       959       293      2017      2188      1099      2031       757      1965
 -1      1730    6    0    1
 -2       942       261      1027       941      2183      2179      1458      1170      2228      1459
 -1      1731    6    0    1
 -2       170      1032      1033      1031      1781      1615      1878      2175      1148      1152
 -1      1732    6    0    1
 -2       181       906       314       188      2056      1996       581       577      2134       580
 -1      1733    6    0    1
 -2       245       945       210       934      2235      2243       737      2245      1444      2299
 -1      1734    6    0    1
 -2       966        86       126        85      1684       892      1202      1680       100       890
 -1      1735    6    0    1
 -2      1012       948       202       916      1376      2194      2192      1369      1372      2167
 -1      1736    6    0    1
 -2        16       290       988       262       372      1709      1107       368       373      1867
 -1      1737    6    0    1
 -2       261       255        35       942       434       432       427      2183      2082      1168
 -1      1738    6    0    1
 -2       109       110       298       151       115       339       503      1639      1638      2297
 -1      1739    6    0    1
 -2       923       924       967       187      1389      1382      1393      2208      2186      2185
 -1      1740    6    0    1
 -2       228       257      1004       233       752      2266      2181       568       744      2189
 -1      1741    6    0    1
 -2       331       319      1007       312       610      1825      1877       852       502      1932
 -1      1742    6    0    1
 -2       251       256       258      1026       439       777       776      2042      2072      1972
 -1      1743    6    0    1
 -2       191       237       192       908       648       647       636      2178      2300      2271
 -1      1744    6    0    1
 -2       918       205        79       921      2201       449      2203      1181      2293      2301
 -1      1745    6    0    1
 -2       171        30        29      1044       412        59       408      2165      1149      1150
 -1      1746    6    0    1
 -2       988        15        16       262      1108        45      1107      1867       369       368
 -1      1747    6    0    1
 -2       999       218       997      1001      2141      2149      1586      1587      2302      1380
 -1      1748    6    0    1
 -2       949       123        83       124      1191       885      1666      1192       138       889
 -1      1749    6    0    1
 -2       192       236       227       946       657       656       640      2303      2199      2278
 -1      1750    6    0    1
 -2         3      1003         5       163      2210      1071       117      1645      1073       169
 -1      1751    6    0    1
 -2      1643        66       255       159      1647       433      2080      1649      1644      2107
 -1      1752    6    0    1
 -2       191       203       204       909       651       653       652      2288      2280      2258
 -1      1753    6    0    1
 -2       121        81        80       939       881        95       882      1183      1691      1675
 -1      1754    6    0    1
 -2       284       941        33      1029      2173      1166       425      2001      1167      1160
 -1      1755    6    0    1
 -2       178       324       215      1030       558       423       546      2060      2105      2106
 -1      1756    6    0    1
 -2       902       975       974       240      1270      1269      1268      2290      2304      2289
 -1      1757    6    0    1
 -2       175      1065       947       948      1951      1475      2090      2020      1468      1373
 -1      1758    6    0    1
 -2       903       902       252       250      1256      2114      1978      2055      2305       772
 -1      1759    6    0    1
 -2       203       930       206       208      1958      1887       700       699      2144       701
 -1      1760    6    0    1
 -2       261        35        34       942       427        64       428      2183      1168      1169
 -1      1761    6    0    1
 -2       214      1012       247       944      2193      2221       697      2298      1472      2222
 -1      1762    6    0    1
 -2       192       190       191       908       635       637       636      2271      2177      2178
 -1      1763    6    0    1
 -2      1008       212       971       183      2252      2296      1359      2225       595      2139
 -1      1764    6    0    1
 -2        81       122        82      1010       884       883        96      1837      1186      1836
 -1      1765    6    0    1
 -2        79       205        78       921       449       450        93      2301      2293      2294
 -1      1766    6    0    1
 -2        68       161       903      1641      1657      1248      2054      1655      1658      1685
 -1      1767    6    0    1
 -2       248       213       973       212       742      2306      2127       741       594      2128
 -1      1768    6    0    1
 -2      1025        11        12       294      1092        41      1091      2014       355       354
 -1      1769    6    0    1
 -2       243       936       207       935      2122      2268       721      2275      1440      2282
 -1      1770    6    0    1
 -2       921        78       119      1001      2294       878      1175      1177      2154      1173
 -1      1771    6    0    1
 -2       161       251       903      1053      2307      2102      1248      1246      1875      1250
 -1      1772    6    0    1
 -2        87       127       128       969       893       142       896      2170      1207      1208
 -1      1773    6    0    1
 -2       954        83       125       124      1669       888      1195      1194       889       139
 -1      1774    6    0    1
 -2       176       215       216      1058       545       420       550      2196      2205      2226
 -1      1775    6    0    1
 -2       244       207       245       935       725       722       726      2276      2282      2281
 -1      1776    6    0    1
 -2       973      1008      1021       249      1520      1521      1221      2126      2215      2231
 -1      1777    6    0    1
 -2      1004       228       902       238      2181      2204      1259      2234       754      2233
 -1      1778    6    0    1
 -2       207       244       243       935       725       724       721      2282      2276      2275
 -1      1779    6    0    1
 -2       200       917       205       918      2162      2308       691      2164      1365      2201
 -1      1780    6    0    1
 -2       310       298       309      1000       504       748       607      2287      2152      2309
 -1      1781    6    0    1
 -2       228       252       229       901       750       751       566      2166      1973      2036
 -1      1782    6    0    1
 -2       205       200       217       917       691       692       451      2308      2162      2310
 -1      1783    6    0    1
 -2       266       268       170      1032       509       510       411      2077      1832      1781
 -1      1784    6    0    1
 -2       203       925       930       909      2267      1318      1958      2280      1310      1319
 -1      1785    6    0    1
 -2        90        89       130       241       104       900       899       486       487      1682
 -1      1786    6    0    1
 -2       246       944       247      1011      2263      2222       696      2270      1448      2223
 -1      1787    6    0    1
 -2       903       162      1002       250      1249      1253      1252      2055      2259      1982
 -1      1788    6    0    1
 -2        78       205       217      1001       450       451       446      2154      2295      2190
 -1      1789    6    0    1
 -2       183      1008       212       233      2225      2252       595       596      2255       597
 -1      1790    6    0    1
 -2       236       237       242       907       658       709       465      2311      2285      2260
 -1      1791    6    0    1
 -2       246       934       944      1011      2312      1447      2263      2270      1445      1448
 -1      1792    6    0    1
 -2       934       246       245       939      2312       739      2245      1442      1673      2218
 -1      1793    6    0    1
 -2       203       191       925       909       651      2230      2267      2280      2288      1310
 -1      1794    6    0    1
 -2       237       908       204       907      2300      2291       655      2285      1298      2261
 -1      1795    6    0    1
 -2       907       204       243      1009      2261       707      2262      1304      2284      2089
 -1      1796    6    0    1
 -2       217       309       298      1000       747       748       448      2150      2309      2152
 -1      1797    6    0    1
 -2       309      1001       999      1000      2313      1587      2229      2309      1174      1589
 -1      1798    6    0    1
 -2        28       171        29      1031       407       408        58      1147      1869      1146
 -1      1799    6    0    1
 -2       224       953       195       226      2315      2314       671       673      1988       674
 -1      1800    6    0    1
 -2       219       965       187       220      2317      2316       624       627      1985       628
 -1      1801    6    0    1
 -2       921        79       119        78      2301       877      1175      2294        93       878
 -1      1802    6    0    1
 -2       125       126        84       957       140       891       887      1197      1198      1677
 -1      1803    6    0    1
 -2       184       997       200       916      2116      2318       601      2092      1367      2163
 -1      1804    6    0    1
 -2       928       196       197       198      2213       678      2212      2319       677       676
 -1      1805    6    0    1
 -2       997       218       917      1001      2149      2320      1368      1380      2302      1379
 -1      1806    6    0    1
 -2       907       242       236       949      2260       465      2311      1305      1664      1665
 -1      1807    6    0    1
 -2       237       191       204       908       648       652       655      2300      2178      2291
 -1      1808    6    0    1
 -2       170      1033       171      1031      1878      1870       410      2175      1152      1869
 -1      1809    6    0    1
 -2       943       948       214       944      1464      1970      1890      1462      1465      2298
 -1      1810    6    0    1
 -2       222       187       965       220       625      2316      2321       629       628      1985
 -1      1811    6    0    1
 -2       226       953       195       227      1988      2314       674       675      2322       646
 -1      1812    6    0    1
 -2       238      1002       240       250      2323      1981       766       771      1982       770
 -1      1813    6    0    1
 -2       974       240       239       238      2289       767      2292      2232       766       768
 -1      1814    6    0    1
 -2       237       946       908       907      2324      1302      2300      2285      1301      1298
 -1      1815    6    0    1
 -2       928       956       955       198      1419      1418      1417      2319      2325      2326
 -1      1816    6    0    1
 -2      1018        67      1643       160      1823      1648      2079      1241      1652      1654
 -1      1817    6    0    1
 -2        86       220       969       221       472      1984      2209       476       477      2172
 -1      1818    6    0    1
 -2       200       997       917       916      2318      1368      2162      2163      1367      1364
 -1      1819    6    0    1
 -2      1054       216      1058      1039      1995      2226      1159      1618      2182      1607
 -1      1820    6    0    1
 -2        84       126        85       957       891       890        99      1677      1198      1692
 -1      1821    6    0    1
 -2       989       947       998       173      1476      1374      1479      2184      2159      2041
 -1      1822    6    0    1
 -2       130       131        90       241       145       873       899      1682      1683       486
 -1      1823    6    0    1
 -2       956       928       964       198      1419      1415      1420      2325      2319      2327
 -1      1824    6    0    1
 -2       968       969       967       219      1215      1514      1384      2273      2328      2249
 -1      1825    6    0    1
 -2      1021       249       974       239      2231      2214      1523      2329       490      2292
 -1      1826    6    0    1
 -2       236       192       237       946       657       647       658      2199      2303      2324
 -1      1827    6    0    1
 -2       902       903      1002       250      1256      1252      1267      2305      2055      1982
 -1      1828    6    0    1
 -2       120       918        79       921      1180      2203       880      1176      1181      2301
 -1      1829    6    0    1
 -2      1004       257      1008       233      2266      2216      1361      2189       744      2255
 -1      1830    6    0    1
 -2       181       906       920       963      2056      1295      2005      1925      1279      1297
 -1      1831    6    0    1
 -2       210       945       944       934      2243      1446      2264      2299      1444      1447
 -1      1832    6    0    1
 -2       944       210       943       945      2264      2242      1462      1446      2243      1463
 -1      1833    6    0    1
 -2       151       152       298      1000       157      2250      2297      1239      1076      2152
 -1      1834    6    0    1
 -2       318       933       194       196      2123      2241       667       666      2238       664
 -1      1835    6    0    1
 -2       949        83       123        82      1666       885      1191      1663        97       886
 -1      1836    6    0    1
 -2      1053        68       251      1642      2330       436      1875      1704      1651      1876
 -1      1837    6    0    1
 -2       195       190       227       952       645       641       646      2331      2198      2279
 -1      1838    6    0    1
 -2       187       964       197       222      2332      2283       614       625      2333       626
 -1      1839    6    0    1
 -2       921       119        79       120      1175       877      2301      1176       134       880
 -1      1840    6    0    1
 -2       242       907       243      1009      2260      2262       711      2334      1304      2089
 -1      1841    6    0    1
 -2       947       175       173       174      2090       524      2159      2095       523       514
 -1      1842    6    0    1
 -2       909       204       191       908      2258       652      2288      1299      2291      2178
 -1      1843    6    0    1
 -2       999       309       218      1001      2229       605      2141      1587      2313      2302
 -1      1844    6    0    1
 -2      1008       249       973       212      2215      2126      1520      2252       745      2128
 -1      1845    6    0    1
 -2       949        82       123      1010      1663       886      1191      1193      1836      1187
 -1      1846    6    0    1
 -2       260      1027       261       941      2059      2179       430      2174      1459      2228
 -1      1847    6    0    1
 -2       975       977       974       239      1226      1522      1269      2335      1672      2292
 -1      1848    6    0    1
 -2        68      1053       161      1642      2330      1246      1657      1651      1704      1659
 -1      1849    6    0    1
 -2       959       230        13       231      2188       357      1096      1964       362       361
 -1      1850    6    0    1
 -2       954       125        83        84      1195       888      1669      1686       887        98
 -1      1851    6    0    1
 -2       242       949       907      1010      1664      1305      2260      1835      1193      1307
 -1      1852    6    0    1
 -2        33       324       284      1029       421       426       425      1160      2120      2001
 -1      1853    6    0    1
 -2       967       965       923       187      1398      1397      1393      2185      2316      2208
 -1      1854    6    0    1
 -2       953       952       227       954      1435      2279      2322      1200      1474      2094
 -1      1855    6    0    1
 -2       968       182       213       225      2220       587      2219      2336       592       591
 -1      1856    6    0    1
 -2       946       192       908       952      2303      2271      1302      1317      2272      1316
 -1      1857    6    0    1
 -2       159         2        66      1019       164        71      1644      1070      1069      1754
 -1      1858    6    0    1
 -2       218       200       184       997       602       601       599      2149      2318      2116
 -1      1859    6    0    1
 -2       925       203       323       191      2267       654      2085      2230       651       649
 -1      1860    6    0    1
 -2       227       190       192       952       641       635       640      2279      2198      2272
 -1      1861    6    0    1
 -2       198       197       964       222       676      2283      2327       682       626      2333
 -1      1862    6    0    1
 -2       184       200       202       916       601       600       536      2092      2163      2167
 -1      1863    6    0    1
 -2       149      1621       982       107      1632      2015      1228      1631      1625      1868
 -1      1864    6    0    1
 -2       213       971       973       212      2138      1519      2306       594      2296      2128
 -1      1865    6    0    1
 -2       932       195       953       952      2254      2314      1436      1434      2331      1435
 -1      1866    6    0    1
 -2       923       965       964       187      1397      1396      1395      2208      2316      2332
 -1      1867    6    0    1
 -2       943       214       210       944      1890       730      2242      1462      2298      2264
 -1      1868    6    0    1
 -2       968       219       182       225      2273       589      2220      2336       593       592
 -1      1869    6    0    1
 -2       200       205       201       918       691       454       690      2164      2201      2202
 -1      1870    6    0    1
 -2       953       932       955       195      1436      1433      1437      2314      2254      2257
 -1      1871    6    0    1
 -2        83       949       124       954      1666      1192       889      1669      1196      1194
 -1      1872    6    0    1
 -2       935       244       242      1010      2276       462      2277      1190      1896      1835
 -1      1873    6    0    1
 -2       202       201       247      1012       689       694       695      2192      2265      2221
 -1      1874    6    0    1
 -2       946       236       227       954      2199       656      2278      1473      1667      2094
 -1      1875    6    0    1
 -2       197       964       928       198      2283      1415      2212       676      2327      2319
 -1      1876    6    0    1
 -2        82       949       242      1010      1663      1664       460      1836      1193      1835
 -1      1877    6    0    1
 -2       971       248       972       213      2337      1721      1515      2138       742      2338
 -1      1878    6    0    1
 -2       965       966       964       222      1210      1491      1396      2321      2156      2333
 -1      1879    6    0    1
 -2       251       161        68      1053      2307      1657       436      1875      1246      2330
 -1      1880    6    0    1
 -2       127       969        86       220      1207      2209       894      1983      1984       472
 -1      1881    6    0    1
 -2       247       210       214       944       738       730       697      2222      2264      2298
 -1      1882    6    0    1
 -2       224       957       953       226      2256      1201      2315       673      1676      1988
 -1      1883    6    0    1
 -2      1002       975       902       240      1272      1270      1267      1981      2304      2290
 -1      1884    6    0    1
 -2       190       195       932       952       645      2254      2132      2198      2331      1434
 -1      1885    6    0    1
 -2       964       197       923       187      2283      2103      1395      2332       614      2208
 -1      1886    6    0    1
 -2      1008       257       212       233      2216       743      2252      2255       744       597
 -1      1887    6    0    1
 -2       964       187       965       222      2332      2316      1396      2333       625      2321
 -1      1888    6    0    1
 -2       227       953       195       952      2322      2314       646      2279      1435      2331
 -1      1889    6    0    1
 -2       964       966       956       222      1491      1206      1420      2333      2156      2339
 -1      1890    6    0    1
 -2      1002       240       902       238      1981      2290      1267      2323       766      2233
 -1      1891    6    0    1
 -2       251       903        68       161      2102      2054       436      2307      1248      1657
 -1      1892    6    0    1
 -2       243       208       207       936       708       712       721      2122      2121      2268
 -1      1893    6    0    1
 -2       218       217       200       917       693       692       602      2320      2310      2162
 -1      1894    6    0    1
 -2       971       972       968       213      1515      1216      1386      2138      2338      2219
 -1      1895    6    0    1
 -2      1011        80       246       939      2240       452      2270      1185      1675      1673
 -1      1896    6    0    1
 -2       974       977      1021       239      1522      1224      1523      2292      1672      2329
 -1      1897    6    0    1
 -2       908       237       192       946      2300       647      2271      1302      2324      2303
 -1      1898    6    0    1
 -2       238       252       902       250       753      2114      2233       771       772      2305
 -1      1899    6    0    1
 -2       969       219       968       221      2328      2273      1215      2172       749      2171
 -1      1900    6    0    1
 -2        80      1011       121       939      2240      1179       882      1675      1185      1183
 -1      1901    6    0    1
 -2       967       969       965       219      1514      1211      1398      2249      2328      2317
 -1      1902    6    0    1
 -2       956       222       966       223      2339      2156      1206      1987       683      1679
 -1      1903    6    0    1
 -2       907       236       946       949      2311      2199      1301      1305      1665      1306
 -1      1904    6    0    1
 -2       242      1009       243       935      2334      2089       711      2277      1449      2275
 -1      1905    6    0    1
 -2       927       928       933       196      1405      1409      1408      2118      2213      2238
 -1      1906    6    0    1
 -2       236       949        83       954      1665      1666       463      1667      1196      1669
 -1      1907    6    0    1
 -2       217      1001       309      1000      2190      2313       747      2150      1174      2309
 -1      1908    6    0    1
 -2        69       162      1641       250      1660      1662      1656       442      2259      1774
 -1      1909    6    0    1
 -2       198       222       956       223       682      2339      2325       684       683      1987
 -1      1910    6    0    1
 -2        86       966       127       220      1684      1203       894       472      1681      1983
 -1      1911    6    0    1
 -2       300       241       975       240       491      2340      2341       774       773      2304
 -1      1912    6    0    1
 -2       955       956       957       224      1418      1205      1490      2269      2342      2256
 -1      1913    6    0    1
 -2       953       955       957       224      1437      1490      1201      2315      2269      2256
 -1      1914    6    0    1
 -2       217       218       309      1001       693       605       747      2190      2302      2313
 -1      1915    6    0    1
 -2       957        84       125       226      1677       887      1197      1676       466      1989
 -1      1916    6    0    1
 -2       126       966        85       223      1202      1680       890      1986      1679       469
 -1      1917    6    0    1
 -2       934      1011       246       939      1445      2270      2312      1442      1185      1673
 -1      1918    6    0    1
 -2      1008       973       971       212      1520      1519      1359      2252      2128      2296
 -1      1919    6    0    1
 -2       226        84       125       954       466       887      1989      1668      1686      1195
 -1      1920    6    0    1
 -2       953       227       226       954      2322       675      1988      1200      2094      1668
 -1      1921    6    0    1
 -2       965       220       219       221      1985       627      2317      2343       477       749
 -1      1922    6    0    1
 -2       225       968       219       221      2336      2273       593       480      2171       749
 -1      1923    6    0    1
 -2       965       219       969       221      2317      2328      1211      2343       749      2172
 -1      1924    6    0    1
 -2       245       934       244       935      2245      2344       726      2281      1439      2276
 -1      1925    6    0    1
 -2       244       934       245       939      2344      2245       726      1674      1442      2218
 -1      1926    6    0    1
 -2       217       917       218      1001      2310      2320       693      2190      1379      2302
 -1      1927    6    0    1
 -2       205       921       917      1001      2293      1378      2308      2295      1177      1379
 -1      1928    6    0    1
 -2       965       187       967       219      2316      2185      1398      2317       624      2249
 -1      1929    6    0    1
 -2       130      1021       977        89      1218      1224      1222       900      2248      1670
 -1      1930    6    0    1
 -2       224       955       956       198      2269      1418      2342       680      2326      2325
 -1      1931    6    0    1
 -2       236       946       237       907      2199      2324       658      2311      1301      2285
 -1      1932    6    0    1
 -2      1009       242       907      1010      2334      2260      1304      1308      1835      1307
 -1      1933    6    0    1
 -2       248       971       973       213      2337      1519      2127       742      2138      2306
 -1      1934    6    0    1
 -2        85       957       126       223      1692      1198       890       469      1678      1986
 -1      1935    6    0    1
 -2       205       918       917       921      2201      1365      2308      2293      1181      1378
 -1      1936    6    0    1
 -2       198       956       224       223      2325      2342       680       684      1987       685
 -1      1937    6    0    1
 -2      1009       935       242      1010      1449      2277      2334      1308      1190      1835
 -1      1938    6    0    1
 -2       953       195       955       224      2314      2257      1437      2315       671      2269
 -1      1939    6    0    1
 -2       966       222       965       220      2156      2321      1210      1681       629      1985
 -1      1940    6    0    1
 -2      1002       238       902       250      2323      2233      1267      1982       771      2305
 -1      1941    6    0    1
 -2       162        69      1002       250      1660      2028      1253      2259       442      1982
 -1      1942    6    0    1
 -2       205       917       217      1001      2308      2310       451      2295      1379      2190
 -1      1943    6    0    1
 -2       192       946       227       952      2303      2278       640      2272      1317      2279
 -1      1944    6    0    1
 -2       218       917       200       997      2320      2162       602      2149      1368      2318
 -1      1945    6    0    1
 -2       300       975      1002       240      2341      1272      1980       774      2304      1981
 -1      1946    6    0    1
 -2       971       973       972       248      1519      1220      1515      2337      2127      1721
 -1      1947    6    0    1
 -2       956       198       964       222      2325      2327      1420      2339       682      2333
 -1      1948    6    0    1
 -2       151       310      1619      1006      2286      1723      1640      1234      2251      1687
 -1      1949    6    0    1
 -2      1619       109       310       151      1633       499      1723      1640      1639      2286
 -1      1950    6    0    1
 -2       239       975       241       240      2335      2340       488       767      2304       773
 -1      1951    6    0    1
 -2       224       956       957       223      2342      1205      2256       685      1987      1678
 -1      1952    6    0    1
 -2      1002      1003       975       300      1254      1227      1272      1980      2207      2341
 -1      1953    6    0    1
 -2       934       939       244       935      1442      1674      2344      1439      1189      2276
 -1      1954    6    0    1
 -2       239       974       975       240      2292      1269      2335       767      2289      2304
 -1      1955    6    0    1
 -2       130        89       977       241       900      1670      1222      1682       487      1671
 -1      1956    6    0    1
 -2       975       241       977       239      2340      1671      1226      2335       488      1672
 -1      1957    6    0    1
 -2       969       220       965       221      1984      1985      1211      2172       477      2343
 -1      1958    6    0    1
 -2       975       131       977       241      1225      1223      1226      2340      1683      1671
 -1      1959    6    0    1
 -2       279      1061         8       281      1847      1083       345       347      2153       341
 -1      1960    6    0    1
 -2         8      1061       279      1063      1083      1847       345      1080      1084      2187
 -1      1961    6    0    1
 -2      1021       239        89       249      2329       489      2248      2231       490       483
 -1      1962    6    0    1
 -2        89       239      1021       977       489      2329      2248      1670      1672      1224
 -1      1963    6    0    1
 -2       254       280       982       253       778      1872      2065       495       779      1700
 -1      1964    6    0    1
 -2       982       280       254       981      1872       778      2065      1230      1946      2040
 -1      1965    6    0    1
 -2       989       189       998       980      2002      1936      1479      1534      1935      1546
 -1      1966    6    0    1
 -2       998       189       989       173      1936      2002      1479      2041       516      2184
 -1      1967    6    0    1
 -2       990       947       172       174      1477      2160      2073      2224      2095       513
 -1      1968    6    0    1
 -2       947       990       172       989      1477      2073      2160      1476      1478      1993
 -1      1969    6    0    1
 -2       173       184       947       998       526      2091      2159      2041      2115      1374
 -1      1970    6    0    1
 -2       947       184       173       175      2091       526      2159      2090       525       524
 -1      1971    6    0    1
 -2       225       968        87       972      2336      2169       481      1722      1216      1720
 -1      1972    6    0    1
 -2        87       968       225       221      2169      2336       481       475      2171       480
 -1      1973    6    0    1
 -2       314       181       904       906       581      1926      1777      1996      2056      1276
 -1      1974    6    0    1
 -2       181       314       904       307       581      1777      1926       585       586      1714
 -1      1975    6    0    1
 -2       312       150       319      1007      2345      1824       502      1932      1236      1825
 -1      1976    6    0    1
 -2       150       312       319       108      2345       502      1824      1636       493       500
 -1      1977    6    0    1
 -2       150       312      1005      1007      2345      1776      1232      1236      1932      1237
 -1      1978    6    0    1
 -2       312       150      1005       108      2345      1232      1776       493      1636      1912
 -1      1979    6    0    1
 -2         6        77      1000       118       874      2151      1074       132       875      1075
 -1      1980    6    0    1
 -2      1000         4       152       298      2346      1623      1076      2152       338      2250
 -1      1981    6    0    1
 -2         4      1000       152         6      2346      1076      1623       147      1074       158
 -1      1982    6    0    1
 -2         4      1000        77       298      2346      2151        91       338      2152       337
 -1      1983    6    0    1
 -2      1000         4        77         6      2346        91      2151      1074       147       874
 -1      1984    6    0    1
 -2       310       298       151       109       504      2297      2286       499       503      1639
 -1      1985    6    0    1
 -2       151       298       310      1000      2297       504      2286      1239      2152      2287
 -1      1986    6    0    1
 -2         3      1003        90       131      2210      2347       105       872      1072       873
 -1      1987    6    0    1
 -2        90      1003         3       300      2347      2210       105       336      2207       335
 -1      1988    6    0    1
 -2      1003       975       241       131      1227      2340      2348      1072      1225      1683
 -1      1989    6    0    1
 -2       241       975      1003       300      2340      1227      2348       491      2341      2207
 -1      1990    6    0    1
 -2      1003       241        90       131      2348       486      2347      1072      1683       873
 -1      1991    6    0    1
 -2        90       241      1003       300       486      2348      2347       336       491      2207
 -1      1992    6    0    1
 -2       201       918      1011      1012      2202      1182      2349      2265      1370      1381
 -1      1993    6    0    1
 -2      1011       247       201      1012      2223       694      2349      1381      2221      2265
 -1      1994    6    0    1
 -2       201       247      1011       246       694      2223      2349       456       696      2270
 -1      1995    6    0    1
 -2       188       219       919       967       590      2274      2110      2109      2249      1383
 -1      1996    6    0    1
 -2       919       219       188       182      2274       590      2110      1967       589       576
 -1      1997    6    0    1
 -2       940       945       207       936      1450      2236      2350      1422      1443      2268
 -1      1998    6    0    1
 -2       207       945       940       211      2236      1450      2350       714      2025      2112
 -1      1999    6    0    1
 -2       207       206       940       936       713      2032      2350      2268      2136      1422
 -1      2000    6    0    1
 -2       940       206       207       211      2032       713      2350      2112       715       714
 -1      2001    6    0    1
 -2       196       198       955       224       677      2326      2237       672       680      2269
 -1      2002    6    0    1
 -2       955       198       196       928      2326       677      2237      1417      2319      2213
 -1      2003    6    0    1
 -2       246       934       210       944      2312      2299       740      2263      1447      2264
 -1      2004    6    0    1
 -2       210       934       246       245      2299      2312       740       737      2245       739
 -1      2005    6    0    1
 -2       935       939        81       122      1189      1691      2351      1188      1184       884
 -1      2006    6    0    1
 -2        81       939       935       244      1691      1189      2351       457      1674      2276
 -1      2007    6    0    1
 -2        81      1010       935       122      1837      1190      2351       884      1186      1188
 -1      2008    6    0    1
 -2       935      1010        81       244      1190      1837      2351      2276      1896       457
 -1      2009    6    0    1
 -2       225       972       213       968      1722      2338       591      2336      1216      2219
 -1      2010    6    0    1
 -2       972       225       213       248      1722       591      2338      1721       482       742
 -1      2011    6    0    1
 -2      1000       310       999       309      2287      2157      1589      2309       607      2229
 -1      2012    6    0    1
 -2       999       310      1000      1006      2157      2287      1589      1590      2251      1240
 -1      2013    6    0    1
 -2      1021        89        88       249      2248       103      2352      2231       483       484
 -1      2014    6    0    1
 -2        89      1021        88       129      2248      2352       103       897      1217       898
 -1      2015    6    0    1
 -2      1021        88       973       249      2352      2353      1221      2231       484      2126
 -1      2016    6    0    1
 -2        88      1021       973       129      2352      1221      2353       898      1217      1219
 -1      2017    6    0    1
 -2        88       973       972       129      2353      1220      2013       898      1219      1213
 -1      2018    6    0    1
 -2        79      1011       201       918      2227      2349       455      2203      1182      2202
 -1      2019    6    0    1
 -2       201      1011        79       246      2349      2227       455       456      2270       453
 -1      2020    6    0    1
 -2        88       248       973       249       478      2127      2353       484       485      2126
 -1      2021    6    0    1
 -2       973       248        88       972      2127       478      2353      1220      1721      2013
 -3
    1PSTEP                         1           1           1          
  100CL  101 1.000000000        2353                     0    1           1
 -4  DISP        4    1
 -5  D1          1    2    1    0
 -5  D2          1    2    2    0
 -5  D3          1    2    3    0
 -5  ALL         1    2    0    0    1ALL
 -1         1 0.00000E+00 0.00000E+00 0.00000E+00
 -1         2-8.56145E+01-1.68096E+04-1.35261E+02
 -1         3-8.56588E+01-1.70991E+04-8.95644E+01
 -1         4 0.00000E+00 0.00000E+00 0.00000E+00
 -1         5-8.64038E+01-1.70990E+04-1.08639E+02
 -1         6 0.00000E+00 0.00000E+00 0.00000E+00
 -1         7-5.74876E+00-1.13386E+00-9.70500E+00
 -1         8-8.67457E+00-7.20172E+01-2.39260E+01
 -1         9-1.06370E+01-2.17585E+02-3.32236E+01
 -1        10-1.24650E+01-4.30622E+02-4.42829E+01
 -1        11-1.41969E+01-7.04918E+02-5.38417E+01
 -1        12-1.58373E+01-1.03528E+03-6.15106E+01
 -1        13-1.72817E+01-1.41784E+03-7.12516E+01
 -1        14-1.87852E+01-1.84605E+03-7.91787E+01
 -1        15-2.10598E+01-2.31618E+03-8.60314E+01
 -1        16-2.29606E+01-2.82549E+03-9.22487E+01
 -1        17-2.51139E+01-3.36903E+03-9.90278E+01
 -1        18-2.75710E+01-3.94384E+03-1.04228E+02
 -1        19-3.00623E+01-4.54658E+03-1.08332E+02
 -1        20-3.27256E+01-5.17423E+03-1.13337E+02
 -1        21-3.54955E+01-5.82405E+03-1.16884E+02
 -1        22-3.84187E+01-6.49333E+03-1.20529E+02
 -1        23-4.14034E+01-7.17935E+03-1.23036E+02
 -1        24-4.45097E+01-7.87995E+03-1.25840E+02
 -1        25-4.76685E+01-8.59304E+03-1.27817E+02
 -1        26-5.09181E+01-9.31656E+03-1.29756E+02
 -1        27-5.42129E+01-1.00486E+04-1.31052E+02
 -1        28-5.75538E+01-1.07875E+04-1.32507E+02
 -1        29-6.10251E+01-1.15320E+04-1.33246E+02
 -1        30-6.44252E+01-1.22807E+04-1.34056E+02
 -1        31-6.79086E+01-1.30325E+04-1.34429E+02
 -1        32-7.14245E+01-1.37863E+04-1.34868E+02
 -1        33-7.49703E+01-1.45415E+04-1.35110E+02
 -1        34-7.85264E+01-1.52973E+04-1.35206E+02
 -1        35-8.20720E+01-1.60534E+04-1.35259E+02
 -1        36-3.55387E+00 5.62703E+00-4.73254E+00
 -1        37-6.79440E+00-2.76990E+01-1.63943E+01
 -1        38-9.56588E+00-1.36713E+02-2.85015E+01
 -1        39-1.15989E+01-3.16991E+02-3.85342E+01
 -1        40-1.33088E+01-5.60995E+02-4.88144E+01
 -1        41-1.49256E+01-8.63724E+02-5.78077E+01
 -1        42-1.61773E+01-1.22073E+03-6.68109E+01
 -1        43-1.79572E+01-1.62718E+03-7.54319E+01
 -1        44-1.99001E+01-2.07633E+03-8.26694E+01
 -1        45-2.18084E+01-2.56659E+03-8.94439E+01
 -1        46-2.38526E+01-3.09360E+03-9.58330E+01
 -1        47-2.62192E+01-3.65298E+03-1.01763E+02
 -1        48-2.87555E+01-4.24225E+03-1.06431E+02
 -1        49-3.12339E+01-4.85759E+03-1.11047E+02
 -1        50-3.40046E+01-5.49680E+03-1.15248E+02
 -1        51-3.68483E+01-6.15653E+03-1.18824E+02
 -1        52-3.98434E+01-6.83459E+03-1.21879E+02
 -1        53-4.28629E+01-7.52803E+03-1.24562E+02
 -1        54-4.60225E+01-8.23521E+03-1.26912E+02
 -1        55-4.92301E+01-8.95367E+03-1.28860E+02
 -1        56-5.25268E+01-9.68171E+03-1.30455E+02
 -1        57-5.58476E+01-1.04173E+04-1.31838E+02
 -1        58-5.92771E+01-1.11592E+04-1.32822E+02
 -1        59-6.26808E+01-1.19060E+04-1.33688E+02
 -1        60-6.61885E+01-1.26563E+04-1.34230E+02
 -1        61-6.96651E+01-1.34092E+04-1.34666E+02
 -1        62-7.31857E+01-1.41638E+04-1.35005E+02
 -1        63-7.67428E+01-1.49193E+04-1.35164E+02
 -1        64-8.02963E+01-1.56754E+04-1.35240E+02
 -1        65-8.38478E+01-1.64315E+04-1.35261E+02
 -1        66-7.00838E+01-1.68332E+04 2.75167E+02
 -1        67-6.35095E+01-1.68724E+04 4.54212E+02
 -1        68-6.35365E+01-1.69266E+04 4.63925E+02
 -1        69-6.81816E+01-1.69839E+04 3.51375E+02
 -1        70-7.56401E+01-1.70413E+04 1.63435E+02
 -1        71-7.53349E+01-1.68192E+04 1.35545E+02
 -1        72-6.58085E+01-1.68526E+04 3.90334E+02
 -1        73-6.27070E+01-1.68995E+04 4.80496E+02
 -1        74-6.54588E+01-1.69553E+04 4.18752E+02
 -1        75-7.16020E+01-1.70126E+04 2.65626E+02
 -1        76-8.02935E+01-1.70701E+04 4.53041E+01
 -1        77 6.00410E+00-4.44027E+01-1.51986E+01
 -1        78 7.17325E+00-3.55964E+02-2.84728E+01
 -1        79 4.04246E+00-9.70261E+02-4.12539E+01
 -1        80-1.41239E+00-1.82023E+03-5.20176E+01
 -1        81-7.98188E+00-2.84739E+03-6.12949E+01
 -1        82-1.52544E+01-4.01426E+03-6.88044E+01
 -1        83-2.29286E+01-5.28930E+03-7.48455E+01
 -1        84-3.08270E+01-6.64765E+03-7.95272E+01
 -1        85-3.88734E+01-8.06962E+03-8.31305E+01
 -1        86-4.69101E+01-9.53583E+03-8.57748E+01
 -1        87-5.49622E+01-1.10318E+04-8.75169E+01
 -1        88-6.28490E+01-1.25438E+04-8.86866E+01
 -1        89-7.05952E+01-1.40629E+04-8.92739E+01
 -1        90-7.81679E+01-1.55821E+04-8.95296E+01
 -1        91 3.96605E+00 3.83713E+00-7.49907E+00
 -1        92 7.24687E+00-1.61161E+02-2.19887E+01
 -1        93 6.06964E+00-6.29262E+02-3.50891E+01
 -1        94 1.64251E+00-1.37049E+03-4.67972E+01
 -1        95-4.54327E+00-2.31449E+03-5.68354E+01
 -1        96-1.14858E+01-3.41548E+03-6.51038E+01
 -1        97-1.90423E+01-4.64055E+03-7.18756E+01
 -1        98-2.68000E+01-5.95891E+03-7.73113E+01
 -1        99-3.48085E+01-7.35185E+03-8.14466E+01
 -1       100-4.28791E+01-8.79796E+03-8.45517E+01
 -1       101-5.09309E+01-1.02811E+04-8.67269E+01
 -1       102-5.89217E+01-1.17864E+04-8.81733E+01
 -1       103-6.67347E+01-1.33029E+04-8.90247E+01
 -1       104-7.43997E+01-1.48228E+04-8.94509E+01
 -1       105-8.19116E+01-1.63409E+04-8.95585E+01
 -1       106 0.00000E+00 0.00000E+00 0.00000E+00
 -1       107 0.00000E+00 0.00000E+00 0.00000E+00
 -1       108 0.00000E+00 0.00000E+00 0.00000E+00
 -1       109 0.00000E+00 0.00000E+00 0.00000E+00
 -1       110 0.00000E+00 0.00000E+00 0.00000E+00
 -1       111 0.00000E+00 0.00000E+00 0.00000E+00
 -1       112 0.00000E+00 0.00000E+00 0.00000E+00
 -1       113 0.00000E+00 0.00000E+00 0.00000E+00
 -1       114 0.00000E+00 0.00000E+00 0.00000E+00
 -1       115 0.00000E+00 0.00000E+00 0.00000E+00
 -1       116 0.00000E+00 0.00000E+00 0.00000E+00
 -1       117-8.60313E+01-1.70990E+04-9.91018E+01
 -1       118 6.87096E+00-4.45058E+01-1.70823E+01
 -1       119 8.81940E+00-3.56110E+02-3.44459E+01
 -1       120 5.89122E+00-9.70409E+02-5.06740E+01
 -1       121 1.39968E-01-1.82036E+03-6.39638E+01
 -1       122-6.77002E+00-2.84749E+03-7.51949E+01
 -1       123-1.44277E+01-4.01434E+03-8.42664E+01
 -1       124-2.24137E+01-5.28935E+03-9.14581E+01
 -1       125-3.05733E+01-6.64767E+03-9.71175E+01
 -1       126-3.88797E+01-8.06963E+03-1.01374E+02
 -1       127-4.71361E+01-9.53582E+03-1.04478E+02
 -1       128-5.53869E+01-1.10318E+04-1.06477E+02
 -1       129-6.34112E+01-1.25438E+04-1.07784E+02
 -1       130-7.12551E+01-1.40629E+04-1.08409E+02
 -1       131-7.88838E+01-1.55821E+04-1.08632E+02
 -1       132 4.43985E+00 3.76357E+00-8.08182E+00
 -1       133 8.50920E+00-1.61288E+02-2.58695E+01
 -1       134 7.81436E+00-6.29416E+02-4.28243E+01
 -1       135 3.32964E+00-1.37063E+03-5.74768E+01
 -1       136-3.16919E+00-2.31461E+03-6.97680E+01
 -1       137-1.04765E+01-3.41557E+03-7.97878E+01
 -1       138-1.83877E+01-4.64061E+03-8.79240E+01
 -1       139-2.64193E+01-5.95895E+03-9.44169E+01
 -1       140-3.46940E+01-7.35187E+03-9.93466E+01
 -1       141-4.30021E+01-8.79797E+03-1.03008E+02
 -1       142-5.12605E+01-1.02811E+04-1.05554E+02
 -1       143-5.94171E+01-1.17863E+04-1.07203E+02
 -1       144-6.73466E+01-1.33029E+04-1.08141E+02
 -1       145-7.50879E+01-1.48228E+04-1.08569E+02
 -1       146-8.26418E+01-1.63408E+04-1.08647E+02
 -1       147 0.00000E+00 0.00000E+00 0.00000E+00
 -1       148 0.00000E+00 0.00000E+00 0.00000E+00
 -1       149 0.00000E+00 0.00000E+00 0.00000E+00
 -1       150 0.00000E+00 0.00000E+00 0.00000E+00
 -1       151 0.00000E+00 0.00000E+00 0.00000E+00
 -1       152 0.00000E+00 0.00000E+00 0.00000E+00
 -1       153 0.00000E+00 0.00000E+00 0.00000E+00
 -1       154 0.00000E+00 0.00000E+00 0.00000E+00
 -1       155 0.00000E+00 0.00000E+00 0.00000E+00
 -1       156 0.00000E+00 0.00000E+00 0.00000E+00
 -1       157 0.00000E+00 0.00000E+00 0.00000E+00
 -1       158 0.00000E+00 0.00000E+00 0.00000E+00
 -1       159-9.55150E+01-1.68358E+04-3.91773E+02
 -1       160-9.70886E+01-1.68753E+04-4.28286E+02
 -1       161-9.66361E+01-1.69287E+04-4.08025E+02
 -1       162-9.41383E+01-1.69850E+04-3.30662E+02
 -1       163-9.06454E+01-1.70417E+04-2.27641E+02
 -1       164-9.32175E+01-1.68213E+04-3.33185E+02
 -1       165-9.67186E+01-1.68555E+04-4.21035E+02
 -1       166-9.71412E+01-1.69020E+04-4.25897E+02
 -1       167-9.55555E+01-1.69568E+04-3.74128E+02
 -1       168-9.24829E+01-1.70133E+04-2.81217E+02
 -1       169-8.86399E+01-1.70702E+04-1.70379E+02
 -1       170-3.90956E+01-1.09017E+04 3.15247E+02
 -1       171-4.53989E+01-1.15252E+04 2.37464E+02
 -1       172 7.58073E+00-6.74980E+02 1.77744E+02
 -1       173-1.63911E+00-6.67175E+02 1.71095E+02
 -1       174 4.88352E+00-9.34534E+02 2.06233E+02
 -1       175-6.84694E+00-1.04070E+03 1.98563E+02
 -1       176-4.75405E+01-1.34092E+04 4.35734E+02
 -1       177-4.97140E+01-1.41115E+04 4.73866E+02
 -1       178-5.24096E+01-1.40584E+04 3.88968E+02
 -1       179-4.29361E+01-1.25926E+04 4.54515E+02
 -1       180-4.62088E+01-1.32975E+04 4.74214E+02
 -1       181-3.70791E+01-1.08963E+04 4.45581E+02
 -1       182-4.19895E+01-1.08782E+04 3.42351E+02
 -1       183-4.49523E+01-1.19455E+04 3.75807E+02
 -1       184-1.08004E+01-6.65221E+02 1.45013E+02
 -1       185-5.95466E+00-2.78200E+02 1.04308E+02
 -1       186-2.97026E+01-9.08672E+03 4.34834E+02
 -1       187-3.60531E+01-9.14620E+03 3.23505E+02
 -1       188-3.56071E+01-1.00388E+04 4.07320E+02
 -1       189 4.40867E+00-3.58039E+02 1.31790E+02
 -1       190-2.17651E+01-5.56558E+03 3.39457E+02
 -1       191-1.72117E+01-4.55899E+03 3.38329E+02
 -1       192-2.41134E+01-5.06406E+03 2.67773E+02
 -1       193-1.49047E+01-5.21831E+03 3.85978E+02
 -1       194-1.92412E+01-6.29196E+03 4.01849E+02
 -1       195-2.69558E+01-6.33539E+03 2.99747E+02
 -1       196-2.52379E+01-7.17718E+03 3.82976E+02
 -1       197-3.04744E+01-8.30138E+03 3.73186E+02
 -1       198-3.20083E+01-7.75720E+03 2.97886E+02
 -1       199-2.46966E+01-7.91091E+03 4.28530E+02
 -1       200-1.44585E+01-6.15688E+02 9.80712E+01
 -1       201-1.55423E+01-1.05719E+03 9.00546E+01
 -1       202-1.49633E+01-9.86696E+02 1.49578E+02
 -1       203-1.10771E+01-3.79106E+03 3.44767E+02
 -1       204-2.04603E+01-3.92084E+03 2.64645E+02
 -1       205-9.27307E+00-5.90071E+02 3.53303E+01
 -1       206-9.81695E+00-2.92569E+03 3.09251E+02
 -1       207-1.82734E+01-2.81195E+03 2.35572E+02
 -1       208-1.58945E+01-3.32223E+03 2.89852E+02
 -1       209-7.60902E+00-1.85787E+03 2.57907E+02
 -1       210-1.65359E+01-1.84463E+03 2.00202E+02
 -1       211-1.35839E+01-2.29370E+03 2.53894E+02
 -1       212-5.16450E+01-1.26618E+04 2.79093E+02
 -1       213-4.80234E+01-1.16917E+04 2.68449E+02
 -1       214-1.21437E+01-1.41291E+03 2.07048E+02
 -1       215-5.31470E+01-1.35301E+04 2.99680E+02
 -1       216-4.84055E+01-1.28188E+04 3.30390E+02
 -1       217-9.55839E+00-2.73571E+02 4.17141E+01
 -1       218-1.17499E+01-3.75546E+02 8.90687E+01
 -1       219-4.12417E+01-9.99260E+03 2.70030E+02
 -1       220-4.16143E+01-9.14276E+03 1.40377E+02
 -1       221-4.64752E+01-1.01678E+04 1.11265E+02
 -1       222-3.57040E+01-8.37310E+03 2.55654E+02
 -1       223-3.59883E+01-7.70050E+03 1.36451E+02
 -1       224-3.13308E+01-7.11995E+03 2.54239E+02
 -1       225-4.77099E+01-1.09491E+04 1.85864E+02
 -1       226-3.08748E+01-6.30946E+03 1.30845E+02
 -1       227-2.70306E+01-5.61598E+03 2.33465E+02
 -1       228-5.20268E+01-1.40615E+04 4.23786E+02
 -1       229-5.14545E+01-1.43819E+04 4.70005E+02
 -1       230 9.33567E+00-1.20856E+03 1.10408E+02
 -1       231 1.08062E+01-1.51281E+03 1.57782E+02
 -1       232-4.19267E+01-1.21251E+04 4.56089E+02
 -1       233-4.86295E+01-1.30413E+04 3.98090E+02
 -1       234-3.89613E+01-1.16688E+04 4.33667E+02
 -1       235-4.45412E+01-1.21191E+04 3.37896E+02
 -1       236-2.61742E+01-4.98897E+03 1.23284E+02
 -1       237-2.38603E+01-4.48974E+03 2.24851E+02
 -1       238-5.82979E+01-1.47726E+04 3.44182E+02
 -1       239-6.27211E+01-1.43594E+04 1.74422E+02
 -1       240-6.42541E+01-1.51438E+04 2.29446E+02
 -1       241-7.00532E+01-1.49231E+04 4.35430E+01
 -1       242-2.22781E+01-3.75974E+03 1.13501E+02
 -1       243-2.11623E+01-3.31713E+03 2.03877E+02
 -1       244-1.90146E+01-2.64729E+03 1.01119E+02
 -1       245-1.91212E+01-2.27296E+03 1.77637E+02
 -1       246-1.62587E+01-1.67244E+03 8.79638E+01
 -1       247-1.73222E+01-1.38651E+03 1.45827E+02
 -1       248-5.36040E+01-1.19334E+04 1.28347E+02
 -1       249-5.90537E+01-1.31268E+04 1.21726E+02
 -1       250-6.16953E+01-1.58284E+04 3.79743E+02
 -1       251-5.85058E+01-1.59528E+04 4.75234E+02
 -1       252-5.60663E+01-1.51158E+04 4.40753E+02
 -1       253 6.40585E+00-6.71319E+01 5.38290E+01
 -1       254 7.47094E+00-2.59494E+01 2.71753E+01
 -1       255-6.45484E+01-1.62306E+04 3.46134E+02
 -1       256-5.79355E+01-1.57180E+04 4.57639E+02
 -1       257-5.50991E+01-1.36679E+04 3.00946E+02
 -1       258-5.40672E+01-1.50550E+04 4.80070E+02
 -1       259-5.41050E+01-1.48770E+04 4.52112E+02
 -1       260-5.93525E+01-1.52128E+04 3.54292E+02
 -1       261-6.36776E+01-1.56636E+04 2.97745E+02
 -1       262 3.27477E+00-2.49471E+03 1.62343E+02
 -1       263 9.77710E+00-2.02637E+03 2.11299E+02
 -1       264 7.75847E+00-2.50759E+03 2.64843E+02
 -1       265 7.38657E+00-2.12312E+03 2.83934E+02
 -1       266-3.86720E+01-1.02697E+04 2.42216E+02
 -1       267-3.21473E+01-9.59298E+03 3.16233E+02
 -1       268-3.30967E+01-1.02734E+04 3.92254E+02
 -1       269-2.85262E+01-9.62580E+03 4.45173E+02
 -1       270-2.38748E+01-7.40562E+03 2.25805E+02
 -1       271-1.71844E+01-6.75925E+03 2.95545E+02
 -1       272-1.83532E+01-7.40034E+03 3.70499E+02
 -1       273-1.47910E+01-6.79406E+03 4.15755E+02
 -1       274-9.51196E+00-4.75517E+03 2.01582E+02
 -1       275-3.10694E+00-4.18769E+03 2.58566E+02
 -1       276-4.38849E+00-4.75742E+03 3.29934E+02
 -1       277-2.37819E+00-4.22602E+03 3.63339E+02
 -1       278 1.30830E+01-2.87459E+02 1.08352E+02
 -1       279 1.33926E+01-1.92424E+02 6.23308E+01
 -1       280 1.15027E+01-1.28555E+02 6.77794E+01
 -1       281 9.78071E+00-6.51368E+01 2.79885E+01
 -1       282 6.82525E+00-1.83338E+02 9.41980E+01
 -1       283 2.45813E+00-2.16591E+03 1.23768E+02
 -1       284-5.91921E+01-1.46408E+04 2.84968E+02
 -1       285 1.48123E+01-3.75516E+02 8.98433E+01
 -1       286-2.57663E+01-8.12620E+03 2.74355E+02
 -1       287-3.11848E+01-8.85119E+03 2.40758E+02
 -1       288-1.10774E+01-5.40546E+03 2.49204E+02
 -1       289-1.63793E+01-6.06764E+03 2.22236E+02
 -1       290 2.30067E+00-3.02963E+03 2.07196E+02
 -1       291-2.65123E+00-3.58585E+03 1.90230E+02
 -1       292 1.48427E+01-8.35799E+02 1.75368E+02
 -1       293 1.46042E+01-1.15270E+03 1.79864E+02
 -1       294 1.23115E+01-8.74374E+02 1.09713E+02
 -1       295 1.12101E+01-1.16947E+03 2.20709E+02
 -1       296-3.51720E+01-1.09413E+04 4.38863E+02
 -1       297-2.50560E+01-8.77513E+03 3.98176E+02
 -1       298-1.94908E+00-1.84003E+01 1.02863E+01
 -1       299-2.08390E+01-8.03556E+03 4.18297E+02
 -1       300-7.09765E+01-1.60289E+04 1.58715E+02
 -1       301-1.07969E+01-6.00351E+03 3.66219E+02
 -1       302-7.32141E+00-5.33012E+03 3.78316E+02
 -1       303 2.20941E+00-3.54074E+03 3.11606E+02
 -1       304-4.04730E+01-1.21365E+04 4.75399E+02
 -1       305 4.54592E+00-2.97809E+03 3.12433E+02
 -1       306 1.39227E+01-5.20954E+02 1.46187E+02
 -1       307-3.24870E+01-1.04187E+04 4.67700E+02
 -1       308-3.65559E+01-1.12652E+04 4.72195E+02
 -1       309-8.07697E+00-1.51322E+02 5.36860E+01
 -1       310-4.03835E+00-4.60800E+01 3.81937E+01
 -1       311 1.07026E+01-1.61238E+03 2.47610E+02
 -1       312 1.78023E+00-6.63281E+01 5.61500E+01
 -1       313-2.66465E+01-9.09135E+03 4.58792E+02
 -1       314-3.07974E+01-9.78640E+03 4.59080E+02
 -1       315-1.89765E+01-7.55857E+03 4.39100E+02
 -1       316-2.34866E+01-8.38183E+03 4.52169E+02
 -1       317-1.43358E+01-6.29815E+03 4.24123E+02
 -1       318-1.89873E+01-6.94476E+03 4.29665E+02
 -1       319-2.27991E+00-8.86130E+01 6.18777E+01
 -1       320-6.81854E+00-4.90303E+03 3.92154E+02
 -1       321-1.15548E+01-5.64663E+03 4.11864E+02
 -1       322-3.81248E+00-3.79810E+03 3.64175E+02
 -1       323-9.04669E+00-4.35974E+03 3.76869E+02
 -1       324-5.82665E+01-1.41257E+04 2.43031E+02
 -1       325 2.24621E+00-2.66982E+03 3.19721E+02
 -1       326-1.61814E+00-3.24522E+03 3.44592E+02
 -1       327 1.46695E+01-6.02144E+02 1.06651E+02
 -1       328 2.32161E+00-1.80185E+03 2.73899E+02
 -1       329-3.14838E+00-2.22829E+03 2.92938E+02
 -1       330 1.64986E-01-1.42947E+03 2.45649E+02
 -1       331 9.42774E-02-1.86063E+02 9.41113E+01
 -1       332 3.75844E+00 1.64092E+00 2.99357E+00
 -1       333-7.31936E+01-1.64419E+04 1.45266E+02
 -1       334-7.32808E+01-1.65352E+04 1.61067E+02
 -1       335-7.79311E+01-1.65638E+04 4.25841E+01
 -1       336-7.42960E+01-1.58058E+04 4.26673E+01
 -1       337-6.98771E-01-3.39984E+01 2.00637E+00
 -1       338-1.59696E-01-3.27221E-01-3.20683E-01
 -1       339-1.05951E+00-3.54267E+00 4.59764E+00
 -1       340 4.91373E+00-2.63838E+01 7.79852E+00
 -1       341 5.80329E+00-6.64098E+01 1.39304E+01
 -1       342 6.35458E+00-1.46843E+01 1.31230E+01
 -1       343 4.28869E+00-6.03715E+00 1.08002E+01
 -1       344 9.29154E+00-4.36632E+01 3.00467E+01
 -1       345 8.43159E+00-1.27334E+02 2.74766E+01
 -1       346 8.90507E+00-2.03005E+02 3.61434E+01
 -1       347 1.20293E+01-1.20911E+02 4.42972E+01
 -1       348 9.96943E+00-2.93034E+02 4.54275E+01
 -1       349 9.68174E+00-4.00244E+02 5.31740E+01
 -1       350 1.45044E+01-2.76658E+02 7.58643E+01
 -1       351 8.87399E+00-5.13363E+02 5.48528E+01
 -1       352 8.24015E+00-6.49841E+02 6.17156E+01
 -1       353 1.51294E+01-4.82546E+02 9.86014E+01
 -1       354 4.98768E+00-9.50739E+02 5.86759E+01
 -1       355 5.77970E+00-7.86747E+02 5.35712E+01
 -1       356 1.38753E+01-7.32433E+02 1.09197E+02
 -1       357 1.52531E+00-1.30855E+03 5.42137E+01
 -1       358 2.23501E+00-1.11823E+03 5.01682E+01
 -1       359 1.11467E+01-1.03547E+03 1.10928E+02
 -1       360 3.05393E+00-1.67363E+03 9.08060E+01
 -1       361 4.21495E+00-1.46306E+03 8.60549E+01
 -1       362 1.04220E+01-1.35744E+03 1.34465E+02
 -1       363-4.81362E+00-2.23822E+03 5.42331E+01
 -1       364-3.78198E+00-2.00182E+03 5.13671E+01
 -1       365 4.35239E+00-1.93542E+03 1.24061E+02
 -1       366 1.05761E+01-1.76261E+03 1.84829E+02
 -1       367 7.19324E+00-2.09584E+03 1.74744E+02
 -1       368-4.57872E+00-2.65573E+03 8.35788E+01
 -1       369-3.29079E+00-2.40274E+03 8.01573E+01
 -1       370 3.10405E+00-2.32823E+03 1.43343E+02
 -1       371-5.16833E+00-3.19557E+03 1.16266E+02
 -1       372-3.72760E+00-2.92523E+03 1.12654E+02
 -1       373 2.99732E+00-2.75761E+03 1.85070E+02
 -1       374-1.01854E+01-3.76124E+03 9.81650E+01
 -1       375-8.74291E+00-3.47494E+03 9.50726E+01
 -1       376 7.57624E-02-3.30341E+03 1.99862E+02
 -1       377-8.42246E+00-4.06400E+03 1.48661E+02
 -1       378-1.00953E+01-4.36415E+03 1.52089E+02
 -1       379-2.53038E+00-3.88324E+03 2.25886E+02
 -1       380-1.67818E+01-4.96130E+03 1.01779E+02
 -1       381-1.52855E+01-4.64858E+03 9.94944E+01
 -1       382-5.94075E+00-4.46836E+03 2.33575E+02
 -1       383-1.82986E+01-5.61180E+03 1.37925E+02
 -1       384-1.65738E+01-5.28789E+03 1.35513E+02
 -1       385-1.01035E+01-5.07734E+03 2.25992E+02
 -1       386-2.33673E+01-6.27767E+03 1.13447E+02
 -1       387-2.17087E+01-5.94377E+03 1.11595E+02
 -1       388-1.36156E+01-5.73379E+03 2.36730E+02
 -1       389-2.22192E+01-6.62464E+03 1.70179E+02
 -1       390-2.40426E+01-6.96690E+03 1.72240E+02
 -1       391-1.65238E+01-6.41131E+03 2.60965E+02
 -1       392-3.06651E+01-7.64023E+03 1.12858E+02
 -1       393-2.89498E+01-7.29060E+03 1.11517E+02
 -1       394-2.02730E+01-7.08058E+03 2.64170E+02
 -1       395-3.26236E+01-8.35731E+03 1.50692E+02
 -1       396-3.07794E+01-8.00138E+03 1.49367E+02
 -1       397-2.47006E+01-7.76423E+03 2.50895E+02
 -1       398-3.77301E+01-9.08172E+03 1.22020E+02
 -1       399-3.59341E+01-8.72039E+03 1.21060E+02
 -1       400-2.84114E+01-8.48718E+03 2.58465E+02
 -1       401-3.69361E+01-9.45325E+03 1.82317E+02
 -1       402-3.88243E+01-9.81882E+03 1.83330E+02
 -1       403-3.14861E+01-9.22099E+03 2.80948E+02
 -1       404-4.51313E+01-1.05266E+04 1.21313E+02
 -1       405-4.33001E+01-1.01575E+04 1.20763E+02
 -1       406-3.52442E+01-9.93042E+03 2.82390E+02
 -1       407-4.85291E+01-1.11545E+04 1.15944E+02
 -1       408-5.03794E+01-1.15271E+04 1.16296E+02
 -1       409-4.42676E+01-1.08432E+04 1.80266E+02
 -1       410-4.21145E+01-1.12129E+04 2.79507E+02
 -1       411-3.87638E+01-1.05852E+04 2.81104E+02
 -1       412-5.22145E+01-1.19009E+04 1.16572E+02
 -1       413-5.42951E+01-1.29241E+04 1.92126E+02
 -1       414-5.24169E+01-1.25483E+04 1.91789E+02
 -1       415-5.03735E+01-1.21984E+04 1.99091E+02
 -1       416-4.47560E+01-1.18219E+04 2.92452E+02
 -1       417-4.64722E+01-1.24687E+04 3.34216E+02
 -1       418-5.70840E+01-1.32798E+04 1.65578E+02
 -1       419-5.89568E+01-1.36567E+04 1.65770E+02
 -1       420-5.07447E+01-1.31742E+04 3.15605E+02
 -1       421-6.40498E+01-1.43321E+04 1.19797E+02
 -1       422-6.22086E+01-1.39546E+04 1.19717E+02
 -1       423-5.56376E+01-1.38277E+04 2.72882E+02
 -1       424-6.58386E+01-1.49675E+04 1.53398E+02
 -1       425-6.40079E+01-1.45897E+04 1.53349E+02
 -1       426-5.86993E+01-1.43832E+04 2.64779E+02
 -1       427-6.97150E+01-1.58571E+04 1.63769E+02
 -1       428-6.79052E+01-1.54790E+04 1.63756E+02
 -1       429-6.49539E+01-1.52536E+04 2.12467E+02
 -1       430-6.14482E+01-1.54381E+04 3.27793E+02
 -1       431-5.91762E+01-1.49267E+04 3.22191E+02
 -1       432-6.94881E+01-1.61406E+04 2.05094E+02
 -1       433-6.72213E+01-1.65318E+04 3.13255E+02
 -1       434-6.40670E+01-1.59471E+04 3.23200E+02
 -1       435-6.35662E+01-1.65514E+04 4.12318E+02
 -1       436-6.09870E+01-1.64397E+04 4.70333E+02
 -1       437-6.04285E+01-1.64126E+04 4.79679E+02
 -1       438-6.07249E+01-1.62952E+04 4.55981E+02
 -1       439-5.77092E+01-1.58354E+04 4.79863E+02
 -1       440-6.07198E+01-1.59742E+04 4.15366E+02
 -1       441-6.23217E+01-1.63777E+04 4.29354E+02
 -1       442-6.49007E+01-1.64061E+04 3.65920E+02
 -1       443-5.96257E+01-1.58907E+04 4.40430E+02
 -1       444-6.92606E+01-1.65067E+04 2.63595E+02
 -1       445-6.58829E+01-1.59286E+04 2.81577E+02
 -1       446-4.11284E+00-3.16347E+02 1.25525E+01
 -1       447-1.97345E+00-1.41170E+02 6.46499E+00
 -1       448-5.70257E+00-1.05302E+02 2.60423E+01
 -1       449-3.89508E+00-7.67299E+02 3.85699E+00
 -1       450-2.09788E+00-4.71021E+02 2.14016E+00
 -1       451-9.78146E+00-4.16475E+02 4.08690E+01
 -1       452-1.09120E+01-1.74813E+03 2.49531E+01
 -1       453-9.03660E+00-1.31590E+03 2.21562E+01
 -1       454-1.29568E+01-8.12439E+02 6.12972E+01
 -1       455-9.21011E+00-1.02137E+03 3.05345E+01
 -1       456-1.58805E+01-1.34945E+03 9.02014E+01
 -1       457-1.49934E+01-2.74866E+03 2.70600E+01
 -1       458-1.27457E+01-2.23087E+03 2.52637E+01
 -1       459-1.75477E+01-2.13904E+03 9.49222E+01
 -1       460-1.99196E+01-3.88766E+03 2.97588E+01
 -1       461-1.73698E+01-3.30223E+03 2.84225E+01
 -1       462-2.05368E+01-3.18719E+03 1.07436E+02
 -1       463-2.54209E+01-5.13965E+03 3.16734E+01
 -1       464-2.24965E+01-4.50123E+03 3.08423E+01
 -1       465-2.41329E+01-4.36128E+03 1.18529E+02
 -1       466-3.14098E+01-6.47892E+03 3.32684E+01
 -1       467-2.83187E+01-5.79945E+03 3.24746E+01
 -1       468-2.84738E+01-5.63915E+03 1.27181E+02
 -1       469-3.77476E+01-7.88525E+03 3.42739E+01
 -1       470-3.45100E+01-7.17492E+03 3.37791E+01
 -1       471-3.33523E+01-6.99758E+03 1.33756E+02
 -1       472-4.43795E+01-9.33931E+03 3.49130E+01
 -1       473-4.10288E+01-8.60724E+03 3.45860E+01
 -1       474-3.87460E+01-8.41641E+03 1.38505E+02
 -1       475-5.05284E+01-1.05981E+04 1.76004E+01
 -1       476-4.70538E+01-9.85302E+03 1.76660E+01
 -1       477-4.39808E+01-9.65326E+03 1.26098E+02
 -1       478-5.80178E+01-1.22380E+04 2.62386E+01
 -1       479-5.44810E+01-1.14837E+04 2.62950E+01
 -1       480-4.71711E+01-1.05582E+04 1.49318E+02
 -1       481-5.13514E+01-1.09912E+04 5.97983E+01
 -1       482-5.05791E+01-1.14401E+04 1.57852E+02
 -1       483-6.45410E+01-1.35941E+04 2.20850E+01
 -1       484-6.09599E+01-1.28360E+04 2.22064E+01
 -1       485-5.63077E+01-1.25294E+04 1.25119E+02
 -1       486-7.40029E+01-1.52525E+04-2.08642E+01
 -1       487-7.03242E+01-1.44934E+04-2.07207E+01
 -1       488-6.62675E+01-1.46410E+04 1.11536E+02
 -1       489-6.64143E+01-1.42115E+04 5.18876E+01
 -1       490-6.09056E+01-1.37430E+04 1.48503E+02
 -1       491-7.04804E+01-1.54763E+04 1.03040E+02
 -1       492 3.84043E+00-9.65458E+00 1.57870E+01
 -1       493 4.84515E-01-2.08334E+01 2.76477E+01
 -1       494 2.62028E+00-2.07451E+01 2.71560E+01
 -1       495 7.30453E+00-4.45229E+01 4.04220E+01
 -1       496 3.80388E+00-1.91371E+01 2.65748E+01
 -1       497 4.12950E+00-6.77814E+01 5.62423E+01
 -1       498-1.66224E+00-1.65668E+01 2.18373E+01
 -1       499-2.30407E+00-1.34136E+01 1.76790E+01
 -1       500-1.52241E+00-2.59921E+01 3.12074E+01
 -1       501-3.41805E+00-6.67366E+01 5.03279E+01
 -1       502-3.40828E-01-7.78680E+01 5.98815E+01
 -1       503-2.16879E+00-6.30073E+00 8.86186E+00
 -1       504-3.63739E+00-3.19103E+01 2.35672E+01
 -1       505-4.10187E+01-1.15971E+04 3.61371E+02
 -1       506-3.85387E+01-1.12848E+04 3.85762E+02
 -1       507-3.64960E+01-1.09216E+04 3.90918E+02
 -1       508-3.70563E+01-1.13044E+04 4.36459E+02
 -1       509-3.52159E+01-1.02716E+04 3.30615E+02
 -1       510-3.58631E+01-1.05869E+04 3.58411E+02
 -1       511-3.40226E+01-1.06068E+04 4.18142E+02
 -1       512-4.13817E+01-1.18938E+04 3.94447E+02
 -1       513 6.32047E+00-8.00228E+02 1.92299E+02
 -1       514 1.55552E+00-7.97050E+02 1.89772E+02
 -1       515 2.92963E+00-6.73142E+02 1.76570E+02
 -1       516 1.51226E+00-5.02451E+02 1.52991E+02
 -1       517 6.12904E+00-5.05153E+02 1.55348E+02
 -1       518 1.06570E+01-8.88259E+02 1.98103E+02
 -1       519 1.18655E+01-7.55263E+02 1.81705E+02
 -1       520 1.11252E+01-5.97333E+02 1.64342E+02
 -1       521 9.56185E+00-4.38316E+02 1.43608E+02
 -1       522 1.45246E+01-6.69796E+02 1.61436E+02
 -1       523-1.22744E+00-9.90271E+02 2.06195E+02
 -1       524-4.25078E+00-8.45007E+02 1.86164E+02
 -1       525-9.11161E+00-8.45435E+02 1.71875E+02
 -1       526-6.73172E+00-6.69330E+02 1.60614E+02
 -1       527-8.38699E+00-4.52449E+02 1.26324E+02
 -1       528-4.28838E+00-4.55042E+02 1.37992E+02
 -1       529-1.38391E+00-3.20785E+02 1.20718E+02
 -1       530 2.61781E+00-1.17097E+03 2.26812E+02
 -1       531-3.46305E+00-1.23044E+03 2.23518E+02
 -1       532 1.31891E+01-9.97346E+02 1.99015E+02
 -1       533 8.31109E+00-1.05018E+03 2.16571E+02
 -1       534 5.98431E+00-1.29971E+03 2.38851E+02
 -1       535-1.17789E+01-1.01770E+03 1.77004E+02
 -1       536-1.30835E+01-8.19060E+02 1.49082E+02
 -1       537-9.61814E+00-1.22101E+03 2.04331E+02
 -1       538-1.38974E+01-1.19395E+03 1.78357E+02
 -1       539-6.55922E+00-1.42584E+03 2.31253E+02
 -1       540-4.98674E+01-1.37337E+04 4.14929E+02
 -1       541-5.05098E+01-1.40850E+04 4.45512E+02
 -1       542-4.84617E+01-1.37602E+04 4.59515E+02
 -1       543-4.60832E+01-1.33536E+04 4.75291E+02
 -1       544-4.77563E+01-1.37044E+04 4.78828E+02
 -1       545-4.97549E+01-1.34696E+04 3.82050E+02
 -1       546-5.25757E+01-1.37942E+04 3.49172E+02
 -1       547-4.51888E+01-1.30006E+04 4.46092E+02
 -1       548-4.41409E+01-1.29450E+04 4.76701E+02
 -1       549-4.49925E+01-1.27057E+04 4.08507E+02
 -1       550-4.75869E+01-1.31139E+04 3.92414E+02
 -1       551-5.18180E+01-1.44941E+04 4.65306E+02
 -1       552-5.30742E+01-1.44676E+04 4.25624E+02
 -1       553-5.03283E+01-1.42468E+04 4.79099E+02
 -1       554-4.88359E+01-1.38393E+04 4.72468E+02
 -1       555-5.18342E+01-1.45831E+04 4.78902E+02
 -1       556-5.26742E+01-1.47184E+04 4.77064E+02
 -1       557-5.37648E+01-1.49660E+04 4.74517E+02
 -1       558-5.48689E+01-1.40920E+04 3.27673E+02
 -1       559-5.55445E+01-1.43495E+04 3.43484E+02
 -1       560-5.57585E+01-1.47588E+04 3.91307E+02
 -1       561-4.33161E+01-1.27162E+04 4.76136E+02
 -1       562-4.14688E+01-1.23645E+04 4.70557E+02
 -1       563-4.31511E+01-1.23558E+04 4.10510E+02
 -1       564-4.09308E+01-1.21301E+04 4.44906E+02
 -1       565-3.93205E+01-1.19026E+04 4.64844E+02
 -1       566-5.15877E+01-1.42218E+04 4.51048E+02
 -1       567-4.89178E+01-1.36793E+04 4.55681E+02
 -1       568-5.02909E+01-1.35511E+04 4.11443E+02
 -1       569-4.70734E+01-1.31698E+04 4.46642E+02
 -1       570-4.39803E+01-1.27106E+04 4.66588E+02
 -1       571-4.51728E+01-1.25826E+04 4.31593E+02
 -1       572-4.10226E+01-1.21310E+04 4.70729E+02
 -1       573-4.09277E+01-1.14198E+04 4.16114E+02
 -1       574-4.34444E+01-1.14109E+04 3.59506E+02
 -1       575-3.93901E+01-1.08880E+04 4.02318E+02
 -1       576-3.87793E+01-1.04574E+04 3.77810E+02
 -1       577-3.62658E+01-1.04668E+04 4.28017E+02
 -1       578-3.94632E+01-1.15092E+04 4.51111E+02
 -1       579-4.32656E+01-1.20357E+04 4.22455E+02
 -1       580-3.30733E+01-9.91302E+03 4.39741E+02
 -1       581-3.39167E+01-1.03395E+04 4.54317E+02
 -1       582-3.91318E+01-1.16945E+04 4.68403E+02
 -1       583-3.66118E+01-1.10809E+04 4.64303E+02
 -1       584-3.45054E+01-1.08410E+04 4.70207E+02
 -1       585-3.45702E+01-1.06576E+04 4.64066E+02
 -1       586-3.15290E+01-1.01020E+04 4.65424E+02
 -1       587-4.49718E+01-1.12841E+04 3.07357E+02
 -1       588-4.64309E+01-1.18190E+04 3.25931E+02
 -1       589-4.16370E+01-1.04349E+04 3.07572E+02
 -1       590-3.84172E+01-1.00167E+04 3.46751E+02
 -1       591-4.78991E+01-1.13204E+04 2.28429E+02
 -1       592-4.48263E+01-1.09142E+04 2.70351E+02
 -1       593-4.44131E+01-1.04692E+04 2.29850E+02
 -1       594-4.98258E+01-1.21761E+04 2.73819E+02
 -1       595-4.82158E+01-1.23032E+04 3.30918E+02
 -1       596-4.67637E+01-1.24928E+04 3.87237E+02
 -1       597-5.00093E+01-1.28519E+04 3.43843E+02
 -1       598-9.53534E+00-3.27690E+02 9.96494E+01
 -1       599-1.18936E+01-5.13096E+02 1.16713E+02
 -1       600-1.50322E+01-7.93417E+02 1.23288E+02
 -1       601-1.34828E+01-6.43765E+02 1.23396E+02
 -1       602-1.32378E+01-4.88502E+02 9.45901E+01
 -1       603-3.01948E+00-2.31094E+02 1.00823E+02
 -1       604 2.06575E+00-2.65984E+02 1.13352E+02
 -1       605-1.00255E+01-2.51379E+02 7.11871E+01
 -1       606-8.11216E+00-2.13558E+02 7.94164E+01
 -1       607-6.21153E+00-9.21862E+01 4.84017E+01
 -1       608-5.45497E+00-1.39041E+02 7.04155E+01
 -1       609-3.95830E+00-1.70694E+02 8.43894E+01
 -1       610-1.24873E+00-1.33144E+02 7.81446E+01
 -1       611-3.26539E+01-9.56096E+03 4.22971E+02
 -1       612-3.57969E+01-9.59197E+03 3.68632E+02
 -1       613-3.28454E+01-9.11775E+03 3.88676E+02
 -1       614-3.32736E+01-8.72190E+03 3.50179E+02
 -1       615-3.00218E+01-8.69335E+03 4.07295E+02
 -1       616-3.01729E+01-9.43584E+03 4.48626E+02
 -1       617-2.71992E+01-8.49506E+03 4.32023E+02
 -1       618-2.75759E+01-8.10626E+03 4.05355E+02
 -1       619-2.65116E+01-8.73351E+03 4.49361E+02
 -1       620-2.39226E+01-8.14633E+03 4.44831E+02
 -1       621-2.86993E+01-9.43799E+03 4.60337E+02
 -1       622-2.80005E+01-9.08961E+03 4.52589E+02
 -1       623-2.50478E+01-8.73531E+03 4.55578E+02
 -1       624-3.86294E+01-9.56781E+03 2.98061E+02
 -1       625-3.59227E+01-8.75889E+03 2.90612E+02
 -1       626-3.32035E+01-8.33825E+03 3.19811E+02
 -1       627-4.15726E+01-9.56782E+03 2.08100E+02
 -1       628-3.90140E+01-9.14584E+03 2.39783E+02
 -1       629-3.86198E+01-8.75619E+03 2.01359E+02
 -1       630 9.20184E+00-3.24821E+02 1.24119E+02
 -1       631 5.80092E+00-2.64110E+02 1.13590E+02
 -1       632 1.00835E+01-2.33534E+02 1.03180E+02
 -1       633 1.35437E+01-3.96105E+02 1.27325E+02
 -1       634 3.39624E+00-1.86122E+02 9.55906E+01
 -1       635-2.30716E+01-5.31452E+03 3.05318E+02
 -1       636-2.09993E+01-4.81053E+03 3.07768E+02
 -1       637-1.94909E+01-5.05467E+03 3.39834E+02
 -1       638-1.60417E+01-4.88633E+03 3.63897E+02
 -1       639-1.84473E+01-5.39222E+03 3.66900E+02
 -1       640-2.55873E+01-5.33788E+03 2.51567E+02
 -1       641-2.47871E+01-5.59262E+03 2.91402E+02
 -1       642-1.70651E+01-5.74828E+03 3.94366E+02
 -1       643-2.05214E+01-5.92720E+03 3.73487E+02
 -1       644-2.33646E+01-6.31617E+03 3.59577E+02
 -1       645-2.44243E+01-5.94714E+03 3.21545E+02
 -1       646-2.71074E+01-5.97395E+03 2.67360E+02
 -1       647-2.40441E+01-4.77494E+03 2.46512E+02
 -1       648-2.12761E+01-4.52781E+03 2.88178E+02
 -1       649-1.32429E+01-4.46084E+03 3.63052E+02
 -1       650-1.19791E+01-4.78332E+03 3.82751E+02
 -1       651-1.42485E+01-4.16937E+03 3.43515E+02
 -1       652-1.90389E+01-4.23816E+03 3.03323E+02
 -1       653-1.63725E+01-3.85925E+03 3.12006E+02
 -1       654-9.98946E+00-4.07275E+03 3.62110E+02
 -1       655-2.22713E+01-4.20214E+03 2.46431E+02
 -1       656-2.70867E+01-5.30236E+03 1.80132E+02
 -1       657-2.59245E+01-5.02920E+03 2.00935E+02
 -1       658-2.53785E+01-4.73753E+03 1.77906E+02
 -1       659-1.53985E+01-5.96796E+03 4.12341E+02
 -1       660-1.30912E+01-5.43232E+03 4.02938E+02
 -1       661-9.15866E+00-5.27122E+03 4.03120E+02
 -1       662-1.06775E+01-5.06186E+03 3.97243E+02
 -1       663-7.68419E+00-4.62973E+03 3.88318E+02
 -1       664-2.23017E+01-6.73109E+03 3.94343E+02
 -1       665-2.61657E+01-6.75477E+03 3.44109E+02
 -1       666-2.20958E+01-7.06183E+03 4.12480E+02
 -1       667-1.90294E+01-6.61682E+03 4.17291E+02
 -1       668-1.66552E+01-6.61972E+03 4.28252E+02
 -1       669-1.66654E+01-6.29613E+03 4.18295E+02
 -1       670-1.29177E+01-5.97001E+03 4.18127E+02
 -1       671-2.91493E+01-6.72473E+03 2.78437E+02
 -1       672-2.86142E+01-7.15066E+03 3.26131E+02
 -1       673-3.14999E+01-6.71437E+03 1.94868E+02
 -1       674-2.95528E+01-6.32507E+03 2.22620E+02
 -1       675-2.90593E+01-5.95990E+03 1.85703E+02
 -1       676-3.12737E+01-8.02926E+03 3.37640E+02
 -1       677-2.87563E+01-7.46647E+03 3.45317E+02
 -1       678-2.78479E+01-7.73488E+03 3.78853E+02
 -1       679-2.49109E+01-7.54281E+03 4.07840E+02
 -1       680-3.17040E+01-7.43752E+03 2.76372E+02
 -1       681-2.18467E+01-7.42447E+03 4.30429E+02
 -1       682-3.38449E+01-8.06389E+03 2.77629E+02
 -1       683-3.60795E+01-8.03708E+03 1.98430E+02
 -1       684-3.43271E+01-7.73048E+03 2.23179E+02
 -1       685-3.37415E+01-7.40901E+03 1.99076E+02
 -1       686-2.12051E+01-7.96815E+03 4.46823E+02
 -1       687-2.15822E+01-7.73541E+03 4.42933E+02
 -1       688-1.87545E+01-7.25070E+03 4.38641E+02
 -1       689-1.64267E+01-1.02474E+03 1.22981E+02
 -1       690-1.53726E+01-8.22280E+02 9.68176E+01
 -1       691-1.33670E+01-6.07087E+02 6.90647E+01
 -1       692-1.24961E+01-4.31543E+02 6.82452E+01
 -1       693-1.15631E+01-3.26232E+02 6.56075E+01
 -1       694-1.69238E+01-1.21969E+03 1.17759E+02
 -1       695-1.63440E+01-1.17912E+03 1.49322E+02
 -1       696-1.75271E+01-1.52731E+03 1.20323E+02
 -1       697-1.56746E+01-1.40336E+03 1.79389E+02
 -1       698-1.83032E+01-3.61740E+03 2.79160E+02
 -1       699-1.35527E+01-3.55571E+03 3.19439E+02
 -1       700-1.03640E+01-3.34859E+03 3.27516E+02
 -1       701-1.30166E+01-3.12231E+03 3.01656E+02
 -1       702-6.41784E+00-3.51607E+03 3.49461E+02
 -1       703-5.64909E+00-3.08658E+03 3.32142E+02
 -1       704-6.42246E+00-4.07608E+03 3.71753E+02
 -1       705-7.38770E+00-3.79626E+03 3.58979E+02
 -1       706-2.66135E+00-3.51787E+03 3.54548E+02
 -1       707-2.10486E+01-3.61632E+03 2.34591E+02
 -1       708-1.91759E+01-3.32242E+03 2.50959E+02
 -1       709-2.37499E+01-4.12331E+03 1.70619E+02
 -1       710-2.27180E+01-3.84500E+03 1.95458E+02
 -1       711-2.21786E+01-3.53652E+03 1.62417E+02
 -1       712-1.71835E+01-3.06466E+03 2.63393E+02
 -1       713-1.46562E+01-2.87244E+03 2.77302E+02
 -1       714-1.61068E+01-2.54797E+03 2.46747E+02
 -1       715-1.17578E+01-2.60401E+03 2.82560E+02
 -1       716-8.76523E+00-2.26413E+03 2.78161E+02
 -1       717-6.56816E+00-2.56834E+03 3.02993E+02
 -1       718 3.20176E-01-2.95250E+03 3.32728E+02
 -1       719-3.84326E+00-2.80024E+03 3.22258E+02
 -1       720-2.84811E-01-2.44649E+03 3.09205E+02
 -1       721-1.98339E+01-3.06067E+03 2.21471E+02
 -1       722-1.89149E+01-2.53887E+03 2.06710E+02
 -1       723-1.72008E+01-2.28679E+03 2.19441E+02
 -1       724-2.09015E+01-2.98009E+03 1.53333E+02
 -1       725-2.02467E+01-2.73518E+03 1.74012E+02
 -1       726-1.96147E+01-2.45797E+03 1.43131E+02
 -1       727-1.07454E+01-2.07173E+03 2.57768E+02
 -1       728-1.52790E+01-2.06610E+03 2.27464E+02
 -1       729-1.27971E+01-1.85512E+03 2.33134E+02
 -1       730-1.45255E+01-1.62299E+03 2.05494E+02
 -1       731-1.00199E+01-1.63081E+03 2.33149E+02
 -1       732-5.37900E+00-2.04068E+03 2.76361E+02
 -1       733-3.78363E+00-1.63880E+03 2.53891E+02
 -1       734-4.10413E-01-2.01100E+03 2.84450E+02
 -1       735-2.73687E+00-1.83221E+03 2.69398E+02
 -1       736 1.34811E+00-1.61137E+03 2.60265E+02
 -1       737-1.79869E+01-2.05436E+03 1.90665E+02
 -1       738-1.72368E+01-1.61093E+03 1.72919E+02
 -1       739-1.86504E+01-1.96893E+03 1.32873E+02
 -1       740-1.83210E+01-1.76453E+03 1.48444E+02
 -1       741-5.26019E+01-1.22981E+04 2.07898E+02
 -1       742-5.07431E+01-1.18126E+04 2.02212E+02
 -1       743-5.33568E+01-1.31645E+04 2.90175E+02
 -1       744-5.17590E+01-1.33544E+04 3.53476E+02
 -1       745-5.52141E+01-1.28940E+04 2.05202E+02
 -1       746-5.69603E+01-1.33979E+04 2.17533E+02
 -1       747-9.59982E+00-2.09752E+02 5.04941E+01
 -1       748-5.00134E+00-6.77236E+01 2.89200E+01
 -1       749-4.39010E+01-1.00806E+04 1.95643E+02
 -1       750-5.40153E+01-1.45885E+04 4.32610E+02
 -1       751-5.36891E+01-1.47487E+04 4.57661E+02
 -1       752-5.33461E+01-1.38650E+04 3.69310E+02
 -1       753-5.69751E+01-1.49443E+04 3.98378E+02
 -1       754-5.50391E+01-1.44169E+04 3.87602E+02
 -1       755-5.66675E+01-1.42202E+04 3.23153E+02
 -1       756-5.47561E+01-1.50855E+04 4.68876E+02
 -1       757 1.32808E+01-1.18111E+03 1.51358E+02
 -1       758 1.32878E+01-1.32723E+03 1.72306E+02
 -1       759 1.44186E+01-1.01089E+03 1.46902E+02
 -1       760 1.27475E+01-1.56491E+03 2.13917E+02
 -1       761 1.13003E+01-1.81502E+03 2.37486E+02
 -1       762 1.32110E+01-1.37633E+03 2.16216E+02
 -1       763-3.84853E+01-1.17001E+04 4.73918E+02
 -1       764-3.54896E+01-1.11033E+04 4.65073E+02
 -1       765-3.72473E+01-1.14670E+04 4.64863E+02
 -1       766-6.11468E+01-1.49581E+04 2.90276E+02
 -1       767-6.34783E+01-1.47517E+04 2.02473E+02
 -1       768-6.03167E+01-1.45663E+04 2.65996E+02
 -1       769-5.87799E+01-1.40133E+04 2.41164E+02
 -1       770-6.27474E+01-1.54863E+04 3.11228E+02
 -1       771-5.99699E+01-1.53005E+04 3.62500E+02
 -1       772-5.87794E+01-1.54720E+04 4.13199E+02
 -1       773-6.69779E+01-1.50335E+04 1.41915E+02
 -1       774-6.75593E+01-1.55863E+04 1.94986E+02
 -1       775-5.71399E+01-1.55343E+04 4.61605E+02
 -1       776-5.62514E+01-1.55038E+04 4.78719E+02
 -1       777-5.57234E+01-1.53865E+04 4.75808E+02
 -1       778 9.59906E+00-6.69329E+01 4.67672E+01
 -1       779 9.13429E+00-9.55394E+01 6.22968E+01
 -1       780 9.65852E+00-1.56481E+02 8.29371E+01
 -1       781 6.87194E+00-1.17746E+02 7.40998E+01
 -1       782 4.06572E+00-1.18521E+02 7.60482E+01
 -1       783 1.16999E+01-9.65508E+01 4.92367E+01
 -1       784-5.99229E+01-1.56907E+04 4.00462E+02
 -1       785-5.60223E+01-1.52974E+04 4.54967E+02
 -1       786-5.81847E+01-1.54653E+04 4.17962E+02
 -1       787-5.63300E+01-1.50448E+04 4.13437E+02
 -1       788 6.85881E+00-2.50210E+03 2.23047E+02
 -1       789 8.99771E+00-2.26261E+03 2.38958E+02
 -1       790 7.08920E+00-2.25538E+03 1.91601E+02
 -1       791 5.82320E+00-2.76386E+03 2.42897E+02
 -1       792 9.79636E+00-2.07659E+03 2.57030E+02
 -1       793 8.10393E+00-2.31265E+03 2.79060E+02
 -1       794 9.09378E+00-1.86087E+03 2.66131E+02
 -1       795 5.92331E+00-2.59052E+03 3.02116E+02
 -1       796 4.88577E+00-2.39096E+03 3.03173E+02
 -1       797 4.96564E+00-3.00529E+03 2.73773E+02
 -1       798 6.31719E+00-2.73974E+03 2.90149E+02
 -1       799 3.70309E+00-2.82297E+03 3.19917E+02
 -1       800 6.92298E+00-1.70820E+03 2.66362E+02
 -1       801 5.18698E+00-1.96086E+03 2.82986E+02
 -1       802 2.45584E+00-2.17862E+03 2.96284E+02
 -1       803-3.24194E+01-9.93248E+03 3.57969E+02
 -1       804-2.94400E+01-9.60977E+03 3.98848E+02
 -1       805-3.05107E+01-9.94890E+03 4.24345E+02
 -1       806-2.82372E+01-9.18251E+03 3.63641E+02
 -1       807-2.66619E+01-9.19911E+03 4.24929E+02
 -1       808-2.71997E+01-8.81336E+03 3.35802E+02
 -1       809-3.20234E+01-1.03464E+04 4.47577E+02
 -1       810-3.03849E+01-1.00213E+04 4.59975E+02
 -1       811-3.35128E+01-1.06797E+04 4.60140E+02
 -1       812-2.51638E+01-8.93371E+03 4.44121E+02
 -1       813-2.73486E+01-9.35816E+03 4.56812E+02
 -1       814-2.92423E+01-9.70659E+03 4.63279E+02
 -1       815-2.02464E+01-7.40327E+03 3.11345E+02
 -1       816-1.75011E+01-7.07838E+03 3.36380E+02
 -1       817-2.15560E+01-7.76139E+03 3.30288E+02
 -1       818-1.49174E+01-6.77750E+03 3.72609E+02
 -1       819-1.62172E+01-7.09584E+03 3.98591E+02
 -1       820-1.35209E+01-6.37849E+03 3.37237E+02
 -1       821-1.26546E+01-6.39615E+03 3.93917E+02
 -1       822-1.24356E+01-6.03607E+03 3.09332E+02
 -1       823-1.80688E+01-7.48003E+03 4.16148E+02
 -1       824-1.68584E+01-7.17416E+03 4.28767E+02
 -1       825-2.22579E+01-8.08133E+03 3.64605E+02
 -1       826-1.94572E+01-7.71682E+03 3.96770E+02
 -1       827-1.97068E+01-7.79646E+03 4.32186E+02
 -1       828-1.18221E+01-6.15173E+03 4.09475E+02
 -1       829-1.43081E+01-6.54527E+03 4.24484E+02
 -1       830-1.64854E+01-6.87039E+03 4.33124E+02
 -1       831-5.85881E+00-4.75686E+03 2.77565E+02
 -1       832-3.38381E+00-4.47021E+03 2.96923E+02
 -1       833-7.08126E+00-5.07827E+03 2.97145E+02
 -1       834-1.43319E+00-4.20829E+03 3.25777E+02
 -1       835-2.94357E+00-4.48950E+03 3.51734E+02
 -1       836 1.46115E-01-3.85957E+03 2.91108E+02
 -1       837 7.67029E-02-3.87901E+03 3.39853E+02
 -1       838 1.21262E+00-3.56419E+03 2.63836E+02
 -1       839-4.91685E+00-4.83123E+03 3.71097E+02
 -1       840-4.53665E+00-4.56087E+03 3.78868E+02
 -1       841-7.92334E+00-5.36869E+03 3.30414E+02
 -1       842-5.68825E+00-5.04179E+03 3.56137E+02
 -1       843-6.83943E+00-5.11552E+03 3.88470E+02
 -1       844 3.62960E-03-3.67087E+03 3.49940E+02
 -1       845-2.80676E+00-4.01065E+03 3.67775E+02
 -1       846-5.30663E+00-4.29448E+03 3.79163E+02
 -1       847 1.24659E+01-2.00484E+02 8.78350E+01
 -1       848 1.33441E+01-1.59212E+02 6.77423E+01
 -1       849 1.43991E+01-2.40002E+02 8.74553E+01
 -1       850 1.52055E+01-3.31112E+02 1.03746E+02
 -1       851 1.56283E+01-4.47989E+02 1.21246E+02
 -1       852 1.07140E+00-1.18957E+02 7.57076E+01
 -1       853 1.58894E+01-5.62495E+02 1.33264E+02
 -1       854-2.48046E+01-8.44992E+03 3.46186E+02
 -1       855-2.28471E+01-8.40382E+03 4.09623E+02
 -1       856-1.01657E+01-5.70313E+03 3.16426E+02
 -1       857-8.93115E+00-5.66405E+03 3.73668E+02
 -1       858 3.21192E+00-3.28299E+03 2.66233E+02
 -1       859 3.50823E+00-3.25505E+03 3.13391E+02
 -1       860 1.55194E+01-8.56642E+02 1.50921E+02
 -1       861 1.50436E+01-9.88518E+02 1.79576E+02
 -1       862 1.37239E+01-1.16266E+03 2.05347E+02
 -1       863 1.58607E+01-7.16885E+02 1.44098E+02
 -1       864 1.10264E+01-1.38332E+03 2.34684E+02
 -1       865 6.05463E+00-1.52325E+03 2.55408E+02
 -1       866-2.18138E+01-8.20882E+03 4.43498E+02
 -1       867-2.34869E+01-8.57872E+03 4.41125E+02
 -1       868-9.07177E+00-5.48861E+03 4.02558E+02
 -1       869-1.02998E+01-5.82552E+03 4.03758E+02
 -1       870 1.81487E+00-3.11203E+03 3.34668E+02
 -1       871 1.25809E+00-3.39371E+03 3.40680E+02
 -1       872-8.22768E+01-1.63408E+04-9.91026E+01
 -1       873-7.85259E+01-1.55821E+04-9.90807E+01
 -1       874 4.20213E+00 3.80443E+00-7.85068E+00
 -1       875 6.43772E+00-4.44516E+01-1.61407E+01
 -1       876 7.87834E+00-1.61221E+02-2.39424E+01
 -1       877 6.94299E+00-6.29337E+02-3.89611E+01
 -1       878 7.99644E+00-3.56035E+02-3.14592E+01
 -1       879 2.48764E+00-1.37055E+03-5.21465E+01
 -1       880 4.96692E+00-9.70333E+02-4.59637E+01
 -1       881-3.85521E+00-2.31455E+03-6.33079E+01
 -1       882-6.36069E-01-1.82030E+03-5.79905E+01
 -1       883-1.09794E+01-3.41553E+03-7.24516E+01
 -1       884-7.37584E+00-2.84744E+03-6.82448E+01
 -1       885-1.87140E+01-4.64058E+03-7.99023E+01
 -1       886-1.48409E+01-4.01430E+03-7.65352E+01
 -1       887-3.07000E+01-6.64766E+03-8.83222E+01
 -1       888-2.66095E+01-5.95893E+03-8.58634E+01
 -1       889-2.26710E+01-5.28933E+03-8.31518E+01
 -1       890-3.88765E+01-8.06963E+03-9.22519E+01
 -1       891-3.47524E+01-7.35186E+03-9.03964E+01
 -1       892-4.29393E+01-8.79797E+03-9.37801E+01
 -1       893-5.10947E+01-1.02811E+04-9.61412E+01
 -1       894-4.70231E+01-9.53582E+03-9.51261E+01
 -1       895-5.91693E+01-1.17864E+04-9.76888E+01
 -1       896-5.51745E+01-1.10318E+04-9.69969E+01
 -1       897-6.70405E+01-1.33029E+04-9.85830E+01
 -1       898-6.31301E+01-1.25438E+04-9.82352E+01
 -1       899-7.47440E+01-1.48228E+04-9.90097E+01
 -1       900-7.09252E+01-1.40629E+04-9.88413E+01
 -1       901-8.51946E+01-1.46614E+04-4.00264E+02
 -1       902-8.41416E+01-1.49257E+04-3.39574E+02
 -1       903-9.12282E+01-1.59505E+04-3.90682E+02
 -1       904-6.42129E+01-1.02807E+04-4.13079E+02
 -1       905-6.04063E+01-9.62221E+03-4.06107E+02
 -1       906-6.37403E+01-1.04981E+04-3.95682E+02
 -1       907-1.64022E+01-4.22117E+03-2.15546E+02
 -1       908-2.42569E+01-4.78524E+03-2.79531E+02
 -1       909-1.89053E+01-3.84460E+03-2.72379E+02
 -1       910-2.76987E+01-3.54171E+03-3.14386E+02
 -1       911-3.15378E+01-3.31833E+03-3.10728E+02
 -1       912-2.49339E+01-2.99386E+03-2.96648E+02
 -1       913-7.17192E+01-1.20440E+04-3.96482E+02
 -1       914-6.87829E+01-1.18712E+04-3.55148E+02
 -1       915-7.47055E+01-1.27759E+04-3.79939E+02
 -1       916 4.80474E+00-8.90430E+02-1.42529E+02
 -1       917 9.93957E+00-5.70433E+02-9.46300E+01
 -1       918 9.22114E+00-9.60841E+02-1.04804E+02
 -1       919-6.20937E+01-1.08207E+04-3.34604E+02
 -1       920-6.71985E+01-1.12338E+04-3.90400E+02
 -1       921 1.12333E+01-5.87697E+02-7.12673E+01
 -1       922-5.50007E+01-9.08435E+03-3.74679E+02
 -1       923-5.20720E+01-9.08572E+03-3.29117E+02
 -1       924-5.76515E+01-9.74994E+03-3.61925E+02
 -1       925-2.65234E+01-4.14935E+03-3.15224E+02
 -1       926-3.16045E+01-4.11975E+03-3.31891E+02
 -1       927-4.68499E+01-7.58298E+03-3.68413E+02
 -1       928-4.33617E+01-7.65734E+03-3.18930E+02
 -1       929-5.01986E+01-8.33379E+03-3.63151E+02
 -1       930-1.95960E+01-3.26824E+03-2.85388E+02
 -1       931-3.88194E+01-6.21593E+03-3.51565E+02
 -1       932-3.45853E+01-6.28268E+03-3.04720E+02
 -1       933-4.18384E+01-6.93451E+03-3.49328E+02
 -1       934-2.13300E+00-2.27495E+03-1.82145E+02
 -1       935-5.24039E+00-2.88158E+03-1.65254E+02
 -1       936-1.02570E+01-2.92056E+03-2.33158E+02
 -1       937-3.04079E+01-4.91893E+03-3.27156E+02
 -1       938-3.35891E+01-5.59860E+03-3.30779E+02
 -1       939-7.32647E-01-2.32372E+03-1.32205E+02
 -1       940-1.67152E+01-2.60023E+03-2.68138E+02
 -1       941-8.69216E+01-1.51604E+04-3.71374E+02
 -1       942-9.14600E+01-1.59833E+04-3.90002E+02
 -1       943-7.27389E+00-1.69945E+03-2.17388E+02
 -1       944-8.48082E-01-1.76708E+03-1.88037E+02
 -1       945-8.05305E+00-2.21943E+03-2.28846E+02
 -1       946-2.18484E+01-5.02085E+03-2.18883E+02
 -1       947-6.19792E+00-9.23221E+02-1.76521E+02
 -1       948-1.52330E+00-1.25791E+03-1.83228E+02
 -1       949-1.78149E+01-4.64644E+03-1.53849E+02
 -1       950-3.45142E+01-4.73908E+03-3.45967E+02
 -1       951-3.85226E+01-4.55492E+03-3.45214E+02
 -1       952-2.78097E+01-5.65438E+03-2.58357E+02
 -1       953-3.12241E+01-6.46216E+03-2.20575E+02
 -1       954-2.53014E+01-5.73935E+03-1.72768E+02
 -1       955-3.68335E+01-7.00226E+03-2.72410E+02
 -1       956-4.03249E+01-7.85606E+03-2.30191E+02
 -1       957-3.53881E+01-7.26734E+03-1.87056E+02
 -1       958-2.50692E+01-1.46236E+03-2.24915E+02
 -1       959-3.02819E+01-1.36996E+03-2.03220E+02
 -1       960-2.74158E+01-1.06967E+03-1.91297E+02
 -1       961-7.15918E+01-1.17168E+04-4.19318E+02
 -1       962-7.07233E+01-1.13654E+04-4.21651E+02
 -1       963-6.76647E+01-1.09647E+04-4.15671E+02
 -1       964-4.58402E+01-8.41179E+03-2.82812E+02
 -1       965-4.92933E+01-9.29979E+03-2.37005E+02
 -1       966-4.43115E+01-8.69773E+03-1.93607E+02
 -1       967-5.46851E+01-9.86557E+03-2.90023E+02
 -1       968-5.91752E+01-1.09711E+04-2.41718E+02
 -1       969-5.31280E+01-1.01677E+04-1.98126E+02
 -1       970-3.12668E+01-1.75290E+03-2.31035E+02
 -1       971-6.53386E+01-1.17829E+04-2.85075E+02
 -1       972-6.16833E+01-1.16630E+04-2.00910E+02
 -1       973-6.66872E+01-1.24065E+04-2.28022E+02
 -1       974-7.72755E+01-1.40694E+04-2.73962E+02
 -1       975-8.21094E+01-1.52117E+04-2.45312E+02
 -1       976-6.43340E+01-1.00195E+04-4.15393E+02
 -1       977-7.59506E+01-1.44204E+04-1.87528E+02
 -1       978-1.28603E+01-2.93821E+02-1.07729E+02
 -1       979-5.71285E+00-1.17842E+02-6.86642E+01
 -1       980-3.07106E+00-2.81047E+02-1.03864E+02
 -1       981-1.03272E+01-5.29895E+01-4.32363E+01
 -1       982-3.79306E+00-2.88649E+01-3.16182E+01
 -1       983-5.62189E+01-8.80539E+03-4.01137E+02
 -1       984-5.74585E+01-8.59705E+03-4.05464E+02
 -1       985-5.25045E+01-8.07513E+03-3.95958E+02
 -1       986-3.10037E+01-2.83856E+03-2.93343E+02
 -1       987-3.63030E+01-3.18197E+03-2.94590E+02
 -1       988-3.53306E+01-2.67936E+03-2.64512E+02
 -1       989-9.37111E+00-5.48645E+02-1.44502E+02
 -1       990-1.84881E+01-8.51702E+02-1.77940E+02
 -1       991-4.86098E+01-7.39095E+03-3.87496E+02
 -1       992-5.07391E+01-7.18960E+03-3.90944E+02
 -1       993-4.50751E+01-6.68799E+03-3.79852E+02
 -1       994-4.12239E+01-6.03413E+03-3.68936E+02
 -1       995-4.42547E+01-5.84205E+03-3.71329E+02
 -1       996-3.77790E+01-5.40838E+03-3.58393E+02
 -1       997 7.05513E+00-4.36950E+02-9.94764E+01
 -1       998-3.48286E-01-5.80164E+02-1.37217E+02
 -1       999 6.07349E+00-1.79235E+02-6.29099E+01
 -1      1000 3.23216E+00-3.49109E+01-2.07149E+01
 -1      1001 1.04194E+01-2.72295E+02-5.74199E+01
 -1      1002-8.75698E+01-1.58058E+04-3.11769E+02
 -1      1003-8.69570E+01-1.62939E+04-2.28760E+02
 -1      1004-7.86818E+01-1.37607E+04-3.53293E+02
 -1      1005-1.63177E+00-3.44441E+01-3.57538E+01
 -1      1006 2.61271E+00-5.11976E+01-3.78865E+01
 -1      1007 4.92280E-01-9.18945E+01-5.87312E+01
 -1      1008-7.17820E+01-1.28376E+04-3.02535E+02
 -1      1009-1.08800E+01-3.40675E+03-2.10570E+02
 -1      1010-1.05843E+01-3.62944E+03-1.56670E+02
 -1      1011 4.22950E+00-1.68729E+03-1.25285E+02
 -1      1012 4.68516E+00-1.32978E+03-1.50939E+02
 -1      1013-2.44272E+01-2.44728E+03-2.76938E+02
 -1      1014-3.05498E+01-2.33435E+03-2.70716E+02
 -1      1015-2.46859E+01-1.89017E+03-2.50629E+02
 -1      1016-7.99148E+01-1.35280E+04-4.09161E+02
 -1      1017 2.81123E+00-2.44057E+02-8.81226E+01
 -1      1018-9.34932E+01-1.61250E+04-4.26678E+02
 -1      1019-9.17728E+01-1.64382E+04-3.42190E+02
 -1      1020-1.93483E+01-5.47976E+02-1.44777E+02
 -1      1021-7.10392E+01-1.33905E+04-2.00892E+02
 -1      1022-7.96864E+01-1.32492E+04-4.26403E+02
 -1      1023-8.46903E+01-1.43366E+04-4.24594E+02
 -1      1024-8.27774E+01-1.38691E+04-4.26393E+02
 -1      1025-2.85720E+01-8.62624E+02-1.54522E+02
 -1      1026-8.91664E+01-1.52338E+04-4.26930E+02
 -1      1027-8.95255E+01-1.53340E+04-4.19930E+02
 -1      1028-8.61317E+01-1.45746E+04-4.26496E+02
 -1      1029-8.48117E+01-1.45574E+04-3.89725E+02
 -1      1030-8.28867E+01-1.39826E+04-4.09951E+02
 -1      1031-6.81981E+01-1.10391E+04-3.60664E+02
 -1      1032-6.67485E+01-1.04522E+04-3.97394E+02
 -1      1033-7.06979E+01-1.12933E+04-4.08820E+02
 -1      1034-6.03393E+01-8.99076E+03-3.88810E+02
 -1      1035-6.35651E+01-9.73961E+03-3.92330E+02
 -1      1036-5.42492E+01-7.56792E+03-3.76300E+02
 -1      1037-5.73709E+01-8.30082E+03-3.82379E+02
 -1      1038-7.49104E+01-1.22197E+04-4.23859E+02
 -1      1039-7.74357E+01-1.27605E+04-4.15420E+02
 -1      1040-4.85321E+01-6.19959E+03-3.59121E+02
 -1      1041-5.14277E+01-6.90201E+03-3.67741E+02
 -1      1042-4.32971E+01-4.90411E+03-3.36465E+02
 -1      1043-4.59722E+01-5.56548E+03-3.48081E+02
 -1      1044-7.39487E+01-1.21141E+04-3.94333E+02
 -1      1045-3.92401E+01-3.77223E+03-3.00531E+02
 -1      1046-4.10406E+01-4.29746E+03-3.18584E+02
 -1      1047-3.58522E+01-3.85895E+03-3.26771E+02
 -1      1048-6.76562E+01-1.07076E+04-4.18802E+02
 -1      1049-6.11135E+01-9.35927E+03-4.11320E+02
 -1      1050-5.42511E+01-7.92707E+03-3.99222E+02
 -1      1051-4.76268E+01-6.54560E+03-3.82391E+02
 -1      1052-4.12747E+01-5.22528E+03-3.59942E+02
 -1      1053-9.43170E+01-1.63164E+04-4.24996E+02
 -1      1054-7.49744E+01-1.26280E+04-3.58345E+02
 -1      1055-1.72816E+01-1.17594E+03-2.04716E+02
 -1      1056-1.65632E+01-1.59269E+03-2.31565E+02
 -1      1057-1.62988E+01-2.09632E+03-2.53877E+02
 -1      1058-7.94290E+01-1.32941E+04-4.00827E+02
 -1      1059-2.58434E+01-7.39208E+02-1.60847E+02
 -1      1060-2.60292E+01-5.49091E+02-1.30384E+02
 -1      1061-1.51511E+01-1.48209E+02-7.50342E+01
 -1      1062-2.22185E+01-3.14948E+02-1.04328E+02
 -1      1063-1.92458E+01-1.53073E+02-6.90708E+01
 -1      1064-3.36255E+01-2.15873E+03-2.38402E+02
 -1      1065-9.95682E+00-1.30098E+03-2.06824E+02
 -1      1066-7.57380E+01-1.25936E+04-4.18002E+02
 -1      1067-6.73182E+00-2.90698E-01-1.03711E+01
 -1      1068-8.86555E+01-1.62451E+04-2.84124E+02
 -1      1069-9.04213E+01-1.66231E+04-2.84126E+02
 -1      1070-9.38304E+01-1.66370E+04-3.71856E+02
 -1      1071-8.67995E+01-1.66962E+04-1.70973E+02
 -1      1072-8.30075E+01-1.59383E+04-1.71031E+02
 -1      1073-8.88077E+01-1.66678E+04-2.28200E+02
 -1      1074 1.83154E+00-2.88909E+00-5.21381E+00
 -1      1075 5.67429E+00-4.49929E+01-1.87596E+01
 -1      1076 1.51445E+00-7.83664E+00-8.85972E+00
 -1      1077-1.55097E+01-6.44140E+01-4.60274E+01
 -1      1078-1.17241E+01-2.65169E+01-2.89392E+01
 -1      1079-6.05765E+00-1.20938E+01-1.97499E+01
 -1      1080-1.78747E+01-1.10374E+02-5.35861E+01
 -1      1081-2.02127E+01-1.83041E+02-6.69746E+01
 -1      1082-1.30911E+01-9.43816E+01-5.91264E+01
 -1      1083-1.79842E+01-1.12020E+02-6.08347E+01
 -1      1084-1.77287E+01-1.51689E+02-7.28265E+01
 -1      1085-2.39809E+01-3.70596E+02-9.96597E+01
 -1      1086-2.26643E+01-2.65746E+02-8.53045E+01
 -1      1087-2.12664E+01-2.27514E+02-8.69031E+01
 -1      1088-2.46438E+01-4.88494E+02-1.05712E+02
 -1      1089-2.57673E+01-6.23985E+02-1.18275E+02
 -1      1090-2.45710E+01-4.23968E+02-1.18195E+02
 -1      1091-2.70844E+01-9.45904E+02-1.35472E+02
 -1      1092-2.62358E+01-7.81873E+02-1.24891E+02
 -1      1093-2.77055E+01-7.24349E+02-1.41955E+02
 -1      1094-2.77165E+01-8.00165E+02-1.60475E+02
 -1      1095-2.62664E+01-6.41889E+02-1.46679E+02
 -1      1096-3.02997E+01-1.39370E+03-1.78197E+02
 -1      1097-2.94454E+01-1.20015E+03-1.66936E+02
 -1      1098-2.94472E+01-1.05519E+03-1.71016E+02
 -1      1099-2.91383E+01-1.21562E+03-1.98479E+02
 -1      1100-2.85780E+01-9.65287E+02-1.76000E+02
 -1      1101-3.21457E+01-1.79935E+03-2.05679E+02
 -1      1102-3.13746E+01-1.58467E+03-1.95082E+02
 -1      1103-3.09895E+01-1.55681E+03-2.17348E+02
 -1      1104-3.28413E+01-2.23633E+03-2.07492E+02
 -1      1105-3.20631E+01-2.00107E+03-1.98409E+02
 -1      1106-3.27122E+01-1.95152E+03-2.35901E+02
 -1      1107-3.48574E+01-2.75146E+03-2.31074E+02
 -1      1108-3.40999E+01-2.49666E+03-2.22547E+02
 -1      1109-3.47033E+01-2.41389E+03-2.51623E+02
 -1      1110-3.73032E+01-3.27543E+03-2.64130E+02
 -1      1111-3.64283E+01-3.00420E+03-2.55931E+02
 -1      1112-3.60351E+01-2.92728E+03-2.80371E+02
 -1      1113-3.87677E+01-3.85722E+03-2.62772E+02
 -1      1114-3.77017E+01-3.56976E+03-2.55602E+02
 -1      1115-3.79926E+01-3.47268E+03-2.98623E+02
 -1      1116-4.10103E+01-4.42110E+03-2.80637E+02
 -1      1117-4.00439E+01-4.12046E+03-2.74308E+02
 -1      1118-4.03203E+01-4.03217E+03-3.09674E+02
 -1      1119-4.34696E+01-5.03848E+03-2.98883E+02
 -1      1120-4.23232E+01-4.72544E+03-2.92871E+02
 -1      1121-4.23128E+01-4.59783E+03-3.27658E+02
 -1      1122-4.59265E+01-5.69411E+03-3.07979E+02
 -1      1123-4.47263E+01-5.36982E+03-3.02838E+02
 -1      1124-4.47422E+01-5.23185E+03-3.42374E+02
 -1      1125-4.84353E+01-6.34577E+03-3.18245E+02
 -1      1126-4.71825E+01-6.01183E+03-3.13575E+02
 -1      1127-4.73408E+01-5.88032E+03-3.53671E+02
 -1      1128-5.11572E+01-7.04002E+03-3.24650E+02
 -1      1129-4.98311E+01-6.69753E+03-3.20776E+02
 -1      1130-5.00742E+01-6.54853E+03-3.63549E+02
 -1      1131-5.39172E+01-7.72325E+03-3.32713E+02
 -1      1132-5.25226E+01-7.37350E+03-3.29230E+02
 -1      1133-5.29202E+01-7.23330E+03-3.72088E+02
 -1      1134-5.68317E+01-8.44627E+03-3.37086E+02
 -1      1135-5.54006E+01-8.09016E+03-3.34240E+02
 -1      1136-5.58731E+01-7.93271E+03-3.79422E+02
 -1      1137-5.97855E+01-9.15299E+03-3.43242E+02
 -1      1138-5.83113E+01-8.79169E+03-3.40778E+02
 -1      1139-5.89010E+01-8.64461E+03-3.85654E+02
 -1      1140-6.28543E+01-9.89344E+03-3.45217E+02
 -1      1141-6.13305E+01-9.52777E+03-3.43281E+02
 -1      1142-6.20018E+01-9.36405E+03-3.90665E+02
 -1      1143-6.60507E+01-1.06192E+04-3.50293E+02
 -1      1144-6.44467E+01-1.02501E+04-3.48715E+02
 -1      1145-6.51905E+01-1.00951E+04-3.94925E+02
 -1      1146-6.70788E+01-1.12845E+04-3.04936E+02
 -1      1147-6.54806E+01-1.09125E+04-3.03927E+02
 -1      1148-6.76919E+01-1.07452E+04-3.83450E+02
 -1      1149-7.25034E+01-1.21968E+04-3.42725E+02
 -1      1150-7.08306E+01-1.18225E+04-3.41870E+02
 -1      1151-6.99204E+01-1.14123E+04-3.65527E+02
 -1      1152-6.97521E+01-1.11662E+04-3.91892E+02
 -1      1153-7.23855E+01-1.17031E+04-4.03002E+02
 -1      1154-7.36697E+01-1.28294E+04-3.01279E+02
 -1      1155-7.20054E+01-1.24536E+04-3.00701E+02
 -1      1156-7.46032E+01-1.23709E+04-3.79642E+02
 -1      1157-7.87022E+01-1.35395E+04-3.50409E+02
 -1      1158-7.70229E+01-1.31627E+04-3.49939E+02
 -1      1159-7.73686E+01-1.29609E+04-3.83837E+02
 -1      1160-8.27445E+01-1.45488E+04-3.35437E+02
 -1      1161-8.10059E+01-1.41712E+04-3.35198E+02
 -1      1162-8.39131E+01-1.42699E+04-4.01436E+02
 -1      1163-8.07282E+01-1.38840E+04-3.62672E+02
 -1      1164-8.11645E+01-1.36382E+04-4.05721E+02
 -1      1165-8.50745E+01-1.52281E+04-3.14394E+02
 -1      1166-8.33277E+01-1.48502E+04-3.14276E+02
 -1      1167-8.59055E+01-1.48589E+04-3.81381E+02
 -1      1168-8.95547E+01-1.60177E+04-3.35608E+02
 -1      1169-8.77960E+01-1.56396E+04-3.35570E+02
 -1      1170-8.92239E+01-1.55718E+04-3.81504E+02
 -1      1171-9.17898E+01-1.62107E+04-3.70581E+02
 -1      1172 8.69964E+00-1.41003E+02-3.21215E+01
 -1      1173 1.07338E+01-3.15784E+02-4.80878E+01
 -1      1174 7.24336E+00-1.23828E+02-3.96112E+01
 -1      1175 1.03767E+01-4.70169E+02-5.18900E+01
 -1      1176 9.37177E+00-7.66116E+02-6.42139E+01
 -1      1177 1.12301E+01-4.14652E+02-6.56203E+01
 -1      1178 6.22654E+00-1.32240E+03-8.65801E+01
 -1      1179 3.01342E+00-1.75581E+03-9.70554E+01
 -1      1180 8.85440E+00-9.71149E+02-7.98250E+01
 -1      1181 1.04630E+01-7.66592E+02-8.74305E+01
 -1      1182 6.87340E+00-1.30241E+03-1.15880E+02
 -1      1183 5.08946E-01-2.07332E+03-9.82842E+01
 -1      1184-3.23845E+00-2.58000E+03-1.06518E+02
 -1      1185 1.79838E+00-1.99557E+03-1.29183E+02
 -1      1186-7.90537E+00-3.23773E+03-1.16150E+02
 -1      1187-1.21643E+01-3.82062E+03-1.22785E+02
 -1      1188-5.06540E+00-2.86955E+03-1.22737E+02
 -1      1189-2.85181E+00-2.59876E+03-1.48705E+02
 -1      1190-7.85537E+00-3.24734E+03-1.61538E+02
 -1      1191-1.56968E+01-4.33059E+03-1.19535E+02
 -1      1192-2.00169E+01-4.96448E+03-1.24430E+02
 -1      1193-1.41549E+01-4.12780E+03-1.55763E+02
 -1      1194-2.34783E+01-5.51596E+03-1.33182E+02
 -1      1195-2.77737E+01-6.18817E+03-1.37306E+02
 -1      1196-2.15345E+01-5.18581E+03-1.63473E+02
 -1      1197-3.26282E+01-6.95897E+03-1.43343E+02
 -1      1198-3.70269E+01-7.66568E+03-1.46400E+02
 -1      1199-3.04256E+01-6.55721E+03-1.62281E+02
 -1      1200-2.81601E+01-6.09947E+03-1.96828E+02
 -1      1201-3.33103E+01-6.86165E+03-2.04404E+02
 -1      1202-4.13433E+01-8.38494E+03-1.48850E+02
 -1      1203-4.56803E+01-9.11455E+03-1.51034E+02
 -1      1204-3.92911E+01-7.96446E+03-1.69161E+02
 -1      1205-3.78031E+01-7.56138E+03-2.08816E+02
 -1      1206-4.23354E+01-8.27459E+03-2.12419E+02
 -1      1207-4.99957E+01-9.85296E+03-1.52768E+02
 -1      1208-5.42919E+01-1.05980E+04-1.54126E+02
 -1      1209-4.80528E+01-9.41887E+03-1.74060E+02
 -1      1210-4.67758E+01-8.99864E+03-2.15534E+02
 -1      1211-5.12257E+01-9.73199E+03-2.18006E+02
 -1      1212-5.84631E+01-1.13482E+04-1.55219E+02
 -1      1213-6.26062E+01-1.21022E+04-1.56035E+02
 -1      1214-5.72248E+01-1.10022E+04-1.77318E+02
 -1      1215-5.61195E+01-1.05691E+04-2.20163E+02
 -1      1216-6.04457E+01-1.13163E+04-2.21682E+02
 -1      1217-6.72204E+01-1.29679E+04-1.55831E+02
 -1      1218-7.12205E+01-1.37262E+04-1.56156E+02
 -1      1219-6.50846E+01-1.24754E+04-1.70361E+02
 -1      1220-6.41890E+01-1.20346E+04-2.14583E+02
 -1      1221-6.88973E+01-1.28979E+04-2.14667E+02
 -1      1222-7.36247E+01-1.42418E+04-1.49064E+02
 -1      1223-7.74911E+01-1.50009E+04-1.49139E+02
 -1      1224-7.35006E+01-1.39051E+04-1.94280E+02
 -1      1225-8.06265E+01-1.53967E+04-1.79910E+02
 -1      1226-7.90556E+01-1.48162E+04-2.16910E+02
 -1      1227-8.45409E+01-1.57528E+04-2.37086E+02
 -1      1228-1.90126E+00-9.38399E+00-1.52682E+01
 -1      1229-3.19019E+00-8.26074E+00-1.36890E+01
 -1      1230-6.95780E+00-4.11662E+01-3.84061E+01
 -1      1231-1.33729E+00-1.22446E+01-1.72444E+01
 -1      1232-6.17053E-01-1.17160E+01-1.78093E+01
 -1      1233-2.56369E+00-3.26559E+01-3.41736E+01
 -1      1234 1.67070E+00-1.42342E+01-1.80833E+01
 -1      1235 1.14229E+00-1.71348E+01-2.11786E+01
 -1      1236 4.20552E-01-2.59234E+01-2.98439E+01
 -1      1237-6.04397E-01-6.04516E+01-4.81877E+01
 -1      1238 1.84329E+00-7.14979E+01-4.86175E+01
 -1      1239 1.85016E+00-1.07420E+01-1.30539E+01
 -1      1240 3.21340E+00-4.44485E+01-2.94093E+01
 -1      1241-9.53052E+01-1.65001E+04-4.27721E+02
 -1      1242-9.48206E+01-1.64804E+04-4.17259E+02
 -1      1243-9.28028E+01-1.60541E+04-4.16888E+02
 -1      1244-9.34934E+01-1.64095E+04-3.90903E+02
 -1      1245-9.57658E+01-1.65959E+04-4.27928E+02
 -1      1246-9.55403E+01-1.66225E+04-4.18257E+02
 -1      1247-9.39942E+01-1.62207E+04-4.28275E+02
 -1      1248-9.39708E+01-1.64396E+04-3.99872E+02
 -1      1249-9.27521E+01-1.64676E+04-3.62854E+02
 -1      1250-9.29343E+01-1.61335E+04-4.11986E+02
 -1      1251-9.06442E+01-1.66396E+04-2.81746E+02
 -1      1252-8.95101E+01-1.58782E+04-3.54434E+02
 -1      1253-9.08602E+01-1.63954E+04-3.21321E+02
 -1      1254-8.73144E+01-1.60497E+04-2.71502E+02
 -1      1255-8.47568E+01-1.47936E+04-3.72759E+02
 -1      1256-8.77627E+01-1.54382E+04-3.66827E+02
 -1      1257-8.82206E+01-1.53058E+04-3.95681E+02
 -1      1258-8.20281E+01-1.42111E+04-3.78695E+02
 -1      1259-8.14324E+01-1.43429E+04-3.46573E+02
 -1      1260-9.04174E+01-1.55921E+04-4.15246E+02
 -1      1261-8.73620E+01-1.49477E+04-4.18241E+02
 -1      1262-7.93962E+01-1.36445E+04-3.84680E+02
 -1      1263-8.25564E+01-1.40943E+04-4.05009E+02
 -1      1264-8.23704E+01-1.39322E+04-4.18406E+02
 -1      1265-8.50387E+01-1.44990E+04-4.15338E+02
 -1      1266-8.69412E+01-1.47851E+04-4.26001E+02
 -1      1267-8.58660E+01-1.53656E+04-3.25928E+02
 -1      1268-8.07484E+01-1.44978E+04-3.07849E+02
 -1      1269-7.97143E+01-1.46403E+04-2.59825E+02
 -1      1270-8.31920E+01-1.50686E+04-2.94421E+02
 -1      1271-7.80173E+01-1.39150E+04-3.15445E+02
 -1      1272-8.48679E+01-1.55088E+04-2.79370E+02
 -1      1273-9.17541E+01-1.57751E+04-4.26242E+02
 -1      1274-6.23230E+01-9.95073E+03-4.09766E+02
 -1      1275-6.20682E+01-1.00588E+04-4.02020E+02
 -1      1276-6.40323E+01-1.03895E+04-4.06210E+02
 -1      1277-6.43214E+01-1.01503E+04-4.15640E+02
 -1      1278-6.25012E+01-9.82103E+03-4.13402E+02
 -1      1279-6.57798E+01-1.07313E+04-4.07305E+02
 -1      1280-6.59498E+01-1.06221E+04-4.14422E+02
 -1      1281-6.60209E+01-1.04942E+04-4.17460E+02
 -1      1282-6.77156E+01-1.08364E+04-4.18982E+02
 -1      1283-6.59975E+01-1.03628E+04-4.17153E+02
 -1      1284-5.90959E+01-9.68677E+03-3.88260E+02
 -1      1285-6.07392E+01-1.01235E+04-3.79961E+02
 -1      1286-5.77704E+01-9.35319E+03-3.92662E+02
 -1      1287-5.63053E+01-9.41618E+03-3.68710E+02
 -1      1288-5.56243E+01-8.94510E+03-3.90472E+02
 -1      1289-5.82961E+01-9.21230E+03-4.03727E+02
 -1      1290-6.27280E+01-9.68855E+03-4.13434E+02
 -1      1291-6.08310E+01-9.49111E+03-4.11283E+02
 -1      1292-5.87865E+01-9.08211E+03-4.08474E+02
 -1      1293-6.29420E+01-1.06597E+04-3.68615E+02
 -1      1294-6.46890E+01-1.10277E+04-3.64706E+02
 -1      1295-6.54698E+01-1.08652E+04-3.93258E+02
 -1      1296-5.98542E+01-1.02833E+04-3.49114E+02
 -1      1297-6.74961E+01-1.10994E+04-4.05744E+02
 -1      1298-2.00935E+01-4.50335E+03-2.48100E+02
 -1      1299-2.14923E+01-4.30646E+03-2.76486E+02
 -1      1300-1.72403E+01-4.03333E+03-2.46196E+02
 -1      1301-1.91091E+01-4.61550E+03-2.17467E+02
 -1      1302-2.27453E+01-4.90418E+03-2.50779E+02
 -1      1303-1.45734E+01-3.62689E+03-2.42296E+02
 -1      1304-1.36038E+01-3.80640E+03-2.13423E+02
 -1      1305-1.68063E+01-4.43272E+03-1.86292E+02
 -1      1306-1.96019E+01-4.83502E+03-1.86931E+02
 -1      1307-1.32327E+01-3.92476E+03-1.86187E+02
 -1      1308-1.03764E+01-3.51886E+03-1.84902E+02
 -1      1309-2.50445E+01-4.46526E+03-3.00602E+02
 -1      1310-2.26130E+01-3.99790E+03-2.95240E+02
 -1      1311-2.84402E+01-4.52894E+03-3.21514E+02
 -1      1312-2.71979E+01-4.85376E+03-3.05114E+02
 -1      1313-2.88600E+01-5.18910E+03-3.05985E+02
 -1      1314-3.19919E+01-5.25557E+03-3.29281E+02
 -1      1315-3.03845E+01-5.62922E+03-2.97592E+02
 -1      1316-2.59154E+01-5.21438E+03-2.69982E+02
 -1      1317-2.47833E+01-5.33613E+03-2.38698E+02
 -1      1318-2.30434E+01-3.69999E+03-3.00685E+02
 -1      1319-1.90559E+01-3.55296E+03-2.80442E+02
 -1      1320-1.46987E+01-3.09595E+03-2.60752E+02
 -1      1321-1.45516E+01-3.37246E+03-2.53004E+02
 -1      1322-1.04189E+01-3.16059E+03-2.22982E+02
 -1      1323-2.96179E+01-3.43045E+03-3.13577E+02
 -1      1324-2.83058E+01-3.15539E+03-3.04441E+02
 -1      1325-2.62806E+01-3.26365E+03-3.05725E+02
 -1      1326-3.19027E+01-3.70082E+03-3.22317E+02
 -1      1327-3.37290E+01-3.58515E+03-3.19057E+02
 -1      1328-2.21532E+01-3.13175E+03-2.93673E+02
 -1      1329-2.36415E+01-3.40570E+03-3.01967E+02
 -1      1330-2.69892E+01-3.84224E+03-3.16764E+02
 -1      1331-2.90511E+01-4.13570E+03-3.25646E+02
 -1      1332-2.96406E+01-3.82703E+03-3.23288E+02
 -1      1333-3.37457E+01-3.99020E+03-3.30711E+02
 -1      1334-3.12379E+01-3.07530E+03-3.02324E+02
 -1      1335-2.79868E+01-2.91775E+03-2.96305E+02
 -1      1336-3.42343E+01-3.25174E+03-3.06709E+02
 -1      1337-3.39804E+01-3.00903E+03-2.96754E+02
 -1      1338-3.62466E+01-3.51627E+03-3.13338E+02
 -1      1339-2.08353E+01-2.79572E+03-2.83788E+02
 -1      1340-1.80773E+01-2.92715E+03-2.77330E+02
 -1      1341-2.05242E+01-2.52592E+03-2.75939E+02
 -1      1342-2.46267E+01-2.71568E+03-2.87421E+02
 -1      1343-2.78051E+01-2.64070E+03-2.85757E+02
 -1      1344-7.02898E+01-1.19578E+04-3.77416E+02
 -1      1345-7.17650E+01-1.23231E+04-3.67962E+02
 -1      1346-7.32169E+01-1.24095E+04-3.88699E+02
 -1      1347-6.94693E+01-1.16383E+04-3.93509E+02
 -1      1348-6.79997E+01-1.15521E+04-3.74113E+02
 -1      1349-7.37958E+01-1.23187E+04-4.08709E+02
 -1      1350-7.53182E+01-1.26849E+04-4.02419E+02
 -1      1351-7.17285E+01-1.18804E+04-4.10549E+02
 -1      1352-6.95105E+01-1.14754E+04-4.07975E+02
 -1      1353-7.36614E+01-1.21546E+04-4.18911E+02
 -1      1354-7.32908E+01-1.28070E+04-3.43943E+02
 -1      1355-7.02953E+01-1.23535E+04-3.30041E+02
 -1      1356-6.54521E+01-1.13450E+04-3.45087E+02
 -1      1357-6.70677E+01-1.18274E+04-3.21701E+02
 -1      1358-6.37156E+01-1.13006E+04-3.10815E+02
 -1      1359-6.85860E+01-1.23097E+04-2.93900E+02
 -1      1360-7.67024E+01-1.32678E+04-3.67250E+02
 -1      1361-7.52798E+01-1.32992E+04-3.28755E+02
 -1      1362-7.73565E+01-1.31518E+04-3.95829E+02
 -1      1363-7.78300E+01-1.30603E+04-4.14206E+02
 -1      1364 7.83990E+00-7.26477E+02-1.18211E+02
 -1      1365 9.90213E+00-7.53485E+02-1.00878E+02
 -1      1366 7.82017E+00-9.30421E+02-1.25316E+02
 -1      1367 6.30063E+00-6.45861E+02-1.21119E+02
 -1      1368 8.73595E+00-5.02692E+02-9.79571E+01
 -1      1369 4.97232E+00-1.10025E+03-1.47992E+02
 -1      1370 7.31473E+00-1.14303E+03-1.27503E+02
 -1      1371-3.93520E-02-9.12846E+02-1.61942E+02
 -1      1372 1.87752E+00-1.06910E+03-1.62771E+02
 -1      1373-3.67103E+00-1.08636E+03-1.81705E+02
 -1      1374-3.09645E+00-7.43310E+02-1.56977E+02
 -1      1375 2.54671E+00-7.29577E+02-1.42205E+02
 -1      1376 2.08035E+00-1.29721E+03-1.68592E+02
 -1      1377 3.92738E+00-5.10375E+02-1.19074E+02
 -1      1378 1.10633E+01-5.81586E+02-8.35964E+01
 -1      1379 1.04002E+01-4.10141E+02-7.52846E+01
 -1      1380 9.23361E+00-3.55465E+02-7.79303E+01
 -1      1381 4.91811E+00-1.50472E+03-1.39933E+02
 -1      1382-5.61249E+01-9.80840E+03-3.28200E+02
 -1      1383-5.83845E+01-1.03424E+04-3.12816E+02
 -1      1384-5.69344E+01-1.04161E+04-2.66695E+02
 -1      1385-6.05922E+01-1.08964E+04-2.90279E+02
 -1      1386-6.22583E+01-1.13768E+04-2.63698E+02
 -1      1387-6.96302E+01-1.13401E+04-4.17580E+02
 -1      1388-5.35185E+01-9.08555E+03-3.53445E+02
 -1      1389-5.48716E+01-9.41730E+03-3.46003E+02
 -1      1390-5.25693E+01-8.70770E+03-3.68990E+02
 -1      1391-5.10715E+01-8.70832E+03-3.47462E+02
 -1      1392-5.32726E+01-8.56987E+03-3.85276E+02
 -1      1393-5.33592E+01-9.47422E+03-3.10407E+02
 -1      1394-4.78963E+01-8.37426E+03-3.26208E+02
 -1      1395-4.89476E+01-8.74839E+03-3.06473E+02
 -1      1396-4.75306E+01-8.85351E+03-2.60708E+02
 -1      1397-5.05769E+01-9.19357E+03-2.85362E+02
 -1      1398-5.19651E+01-9.58283E+03-2.63963E+02
 -1      1399-3.30416E+01-4.42596E+03-3.39093E+02
 -1      1400-3.05877E+01-4.44210E+03-3.32220E+02
 -1      1401-3.24592E+01-4.82992E+03-3.39036E+02
 -1      1402-3.65679E+01-4.64801E+03-3.47040E+02
 -1      1403-3.51662E+01-4.33647E+03-3.39639E+02
 -1      1404-3.71679E+01-4.20235E+03-3.36212E+02
 -1      1405-4.50661E+01-7.62104E+03-3.45854E+02
 -1      1406-4.67832E+01-7.99501E+03-3.41997E+02
 -1      1407-4.85208E+01-7.95659E+03-3.66135E+02
 -1      1408-4.43631E+01-7.25728E+03-3.59092E+02
 -1      1409-4.25278E+01-7.29402E+03-3.35507E+02
 -1      1410-4.97702E+01-7.82888E+03-3.84300E+02
 -1      1411-5.13824E+01-8.20506E+03-3.83312E+02
 -1      1412-4.77582E+01-7.48726E+03-3.79715E+02
 -1      1413-4.53040E+01-7.16303E+03-3.71409E+02
 -1      1414-5.05717E+01-7.73147E+03-3.91820E+02
 -1      1415-4.45515E+01-8.03270E+03-3.01742E+02
 -1      1416-3.91208E+01-6.97039E+03-3.14022E+02
 -1      1417-4.00583E+01-7.32917E+03-2.96128E+02
 -1      1418-3.85125E+01-7.42613E+03-2.52211E+02
 -1      1419-4.16413E+01-7.75797E+03-2.76834E+02
 -1      1420-4.30427E+01-8.13403E+03-2.56896E+02
 -1      1421-5.43389E+01-8.43874E+03-3.98650E+02
 -1      1422-1.30252E+01-2.76193E+03-2.53960E+02
 -1      1423-3.65894E+01-6.25056E+03-3.30246E+02
 -1      1424-3.81931E+01-6.60771E+03-3.27888E+02
 -1      1425-4.02935E+01-6.57273E+03-3.50873E+02
 -1      1426-3.61559E+01-5.90534E+03-3.41338E+02
 -1      1427-3.39403E+01-5.93823E+03-3.19144E+02
 -1      1428-4.19991E+01-6.45168E+03-3.67714E+02
 -1      1429-4.34486E+01-6.81211E+03-3.68243E+02
 -1      1430-4.00031E+01-6.12542E+03-3.61932E+02
 -1      1431-3.74030E+01-5.81675E+03-3.52641E+02
 -1      1432-4.31383E+01-6.35892E+03-3.74500E+02
 -1      1433-3.56250E+01-6.64006E+03-2.89480E+02
 -1      1434-3.11305E+01-5.96760E+03-2.81903E+02
 -1      1435-2.94145E+01-6.05437E+03-2.40462E+02
 -1      1436-3.26118E+01-6.37424E+03-2.64901E+02
 -1      1437-3.39640E+01-6.73222E+03-2.46827E+02
 -1      1438-4.68252E+01-7.03742E+03-3.83834E+02
 -1      1439-3.53674E+00-2.57096E+03-1.74908E+02
 -1      1440-7.16726E+00-2.90554E+03-2.00873E+02
 -1      1441-5.98412E+00-2.59309E+03-2.07588E+02
 -1      1442-9.69922E-01-2.30184E+03-1.58259E+02
 -1      1443-9.00041E+00-2.56076E+03-2.32171E+02
 -1      1444-4.58746E+00-2.25073E+03-2.07188E+02
 -1      1445 1.41751E+00-1.97759E+03-1.53308E+02
 -1      1446-4.31291E+00-1.98991E+03-2.08545E+02
 -1      1447-1.32816E+00-2.01446E+03-1.86200E+02
 -1      1448 2.59820E+00-1.73363E+03-1.58208E+02
 -1      1449-7.90677E+00-3.14256E+03-1.87896E+02
 -1      1450-1.22518E+01-2.40892E+03-2.49318E+02
 -1      1451-3.41704E+01-5.16305E+03-3.44667E+02
 -1      1452-3.56435E+01-5.50462E+03-3.47698E+02
 -1      1453-3.61557E+01-5.07047E+03-3.52342E+02
 -1      1454-3.94714E+01-5.71885E+03-3.63757E+02
 -1      1455-1.64223E+01-2.34313E+03-2.61694E+02
 -1      1456-1.18827E+01-2.16073E+03-2.44003E+02
 -1      1457-2.04077E+01-2.27025E+03-2.66893E+02
 -1      1458-9.06599E+01-1.56586E+04-4.09133E+02
 -1      1459-8.85514E+01-1.52472E+04-4.04167E+02
 -1      1460-8.73203E+01-1.49457E+04-4.08956E+02
 -1      1461-9.15372E+01-1.57295E+04-4.24114E+02
 -1      1462-3.74209E+00-1.73582E+03-2.04151E+02
 -1      1463-7.57025E+00-1.95246E+03-2.23898E+02
 -1      1464-4.31963E+00-1.47232E+03-2.00409E+02
 -1      1465-9.24052E-01-1.50364E+03-1.87184E+02
 -1      1466-1.17050E+01-1.89534E+03-2.36512E+02
 -1      1467-8.50177E+00-1.49535E+03-2.13336E+02
 -1      1468-5.50870E+00-1.28206E+03-1.96430E+02
 -1      1469-1.17645E+01-1.64906E+03-2.27359E+02
 -1      1470-1.63913E+01-1.83782E+03-2.43493E+02
 -1      1471-1.32740E+01-1.44433E+03-2.19763E+02
 -1      1472 2.07311E+00-1.54356E+03-1.69338E+02
 -1      1473-2.34848E+01-5.37652E+03-1.97017E+02
 -1      1474-2.62291E+01-5.69905E+03-2.17373E+02
 -1      1475-8.05627E+00-1.10504E+03-1.91792E+02
 -1      1476-7.77101E+00-7.26024E+02-1.62039E+02
 -1      1477-1.22527E+01-8.92125E+02-1.80320E+02
 -1      1478-1.38758E+01-6.93408E+02-1.61614E+02
 -1      1479-4.64037E+00-5.67441E+02-1.42873E+02
 -1      1480-1.16316E+01-1.04875E+03-1.92448E+02
 -1      1481-1.78451E+01-1.00868E+03-1.91624E+02
 -1      1482-1.35979E+01-1.23982E+03-2.07538E+02
 -1      1483-3.80187E+01-4.98122E+03-3.54244E+02
 -1      1484-3.98923E+01-4.88668E+03-3.52732E+02
 -1      1485-3.95879E+01-5.31772E+03-3.60967E+02
 -1      1486-4.12903E+01-4.72927E+03-3.45455E+02
 -1      1487-4.02196E+01-4.42717E+03-3.37728E+02
 -1      1488-4.26272E+01-5.06534E+03-3.53331E+02
 -1      1489-3.89764E+01-4.07691E+03-3.27848E+02
 -1      1490-3.59086E+01-7.13565E+03-2.31515E+02
 -1      1491-4.49653E+01-8.55530E+03-2.39937E+02
 -1      1492-2.82915E+01-1.41794E+03-2.17935E+02
 -1      1493-2.63167E+01-1.26089E+03-2.09265E+02
 -1      1494-2.85932E+01-1.60543E+03-2.30826E+02
 -1      1495-2.12133E+01-1.31657E+03-2.15478E+02
 -1      1496-2.25869E+01-1.12641E+03-2.01205E+02
 -1      1497-2.48465E+01-1.67106E+03-2.38179E+02
 -1      1498-2.84347E+01-1.82369E+03-2.45077E+02
 -1      1499-2.06922E+01-1.73979E+03-2.41708E+02
 -1      1500-2.08648E+01-1.52974E+03-2.29435E+02
 -1      1501-1.69139E+01-1.37804E+03-2.18530E+02
 -1      1502-2.32171E+01-9.59057E+02-1.86747E+02
 -1      1503-2.66316E+01-8.97806E+02-1.76265E+02
 -1      1504-2.24619E+01-7.97224E+02-1.71650E+02
 -1      1505-7.11861E+01-1.15411E+04-4.21666E+02
 -1      1506-6.92770E+01-1.11651E+04-4.20183E+02
 -1      1507-7.33378E+01-1.19682E+04-4.23222E+02
 -1      1508-7.28315E+01-1.17919E+04-4.22874E+02
 -1      1509-7.54170E+01-1.24068E+04-4.24003E+02
 -1      1510-6.91948E+01-1.10360E+04-4.20281E+02
 -1      1511-7.28676E+01-1.17559E+04-4.19125E+02
 -1      1512-7.08497E+01-1.13295E+04-4.18763E+02
 -1      1513-6.93271E+01-1.10001E+04-4.16919E+02
 -1      1514-5.38420E+01-1.00168E+04-2.45773E+02
 -1      1515-6.35026E+01-1.17234E+04-2.44184E+02
 -1      1516-2.77058E+01-2.10771E+03-2.61444E+02
 -1      1517-3.11484E+01-2.03678E+03-2.52768E+02
 -1      1518-3.27557E+01-2.24764E+03-2.59754E+02
 -1      1519-6.60334E+01-1.20942E+04-2.57207E+02
 -1      1520-6.92500E+01-1.26224E+04-2.66248E+02
 -1      1521-7.14553E+01-1.31137E+04-2.53580E+02
 -1      1522-7.66433E+01-1.42447E+04-2.31914E+02
 -1      1523-7.41680E+01-1.37303E+04-2.38264E+02
 -1      1524-7.45570E+01-1.34528E+04-2.88538E+02
 -1      1525-6.58271E+01-1.02358E+04-4.12181E+02
 -1      1526-6.42149E+01-9.87985E+03-4.10001E+02
 -1      1527-6.74368E+01-1.05801E+04-4.13588E+02
 -1      1528-6.26768E+01-9.54950E+03-4.08268E+02
 -1      1529-9.16812E+00-1.96406E+02-8.84090E+01
 -1      1530-4.58983E+00-1.92127E+02-8.73926E+01
 -1      1531-7.72574E+00-2.90654E+02-1.07097E+02
 -1      1532-1.41682E+01-2.16536E+02-9.19985E+01
 -1      1533-1.01097E+01-1.35107E+02-7.28298E+01
 -1      1534-6.03243E+00-4.04940E+02-1.24555E+02
 -1      1535-1.11609E+01-4.13619E+02-1.26844E+02
 -1      1536-1.43148E+01-5.51154E+02-1.45534E+02
 -1      1537-1.60998E+01-4.11498E+02-1.26515E+02
 -1      1538-1.80070E+01-3.07159E+02-1.08693E+02
 -1      1539-2.13231E+01-4.26570E+02-1.26288E+02
 -1      1540-1.90634E+01-2.23368E+02-9.05468E+01
 -1      1541-1.02438E+00-1.74273E+02-8.15928E+01
 -1      1542-2.31985E+00-1.06262E+02-6.50908E+01
 -1      1543-4.77413E+00-6.54877E+01-5.03077E+01
 -1      1544-8.21045E+00-8.49713E+01-5.71318E+01
 -1      1545-3.25660E+00-7.04221E+01-5.25797E+01
 -1      1546-1.70645E+00-4.18833E+02-1.22032E+02
 -1      1547 1.45760E-01-2.64283E+02-9.68868E+01
 -1      1548 1.65896E+00-3.95670E+02-1.12816E+02
 -1      1549 1.56682E+00-1.59373E+02-7.47310E+01
 -1      1550-5.68981E+01-8.70166E+03-4.05511E+02
 -1      1551-5.51017E+01-8.33580E+03-4.02428E+02
 -1      1552-5.92926E+01-8.97680E+03-4.08475E+02
 -1      1553-5.58664E+01-8.26075E+03-4.02411E+02
 -1      1554-5.34398E+01-8.00160E+03-3.99263E+02
 -1      1555-5.92232E+01-8.79391E+03-4.03043E+02
 -1      1556-5.77026E+01-8.44938E+03-4.00017E+02
 -1      1557-6.09844E+01-9.17529E+03-4.05918E+02
 -1      1558-5.61600E+01-8.11400E+03-3.96936E+02
 -1      1559-5.15704E+01-7.65868E+03-3.95535E+02
 -1      1560-3.38110E+01-2.76075E+03-2.85144E+02
 -1      1561-3.07871E+01-2.58216E+03-2.82362E+02
 -1      1562-3.35169E+01-2.50506E+03-2.72063E+02
 -1      1563-2.75803E+01-2.39230E+03-2.75254E+02
 -1      1564-3.80661E+01-3.81700E+03-3.19867E+02
 -1      1565-1.89543E+01-6.92945E+02-1.61677E+02
 -1      1566-2.28323E+01-6.40540E+02-1.54022E+02
 -1      1567-4.97251E+01-7.29090E+03-3.91351E+02
 -1      1568-4.80049E+01-6.93840E+03-3.87046E+02
 -1      1569-5.24923E+01-7.55640E+03-3.95190E+02
 -1      1570-4.91835E+01-6.86580E+03-3.86785E+02
 -1      1571-4.63952E+01-6.61750E+03-3.82717E+02
 -1      1572-5.28397E+01-7.37877E+03-3.89346E+02
 -1      1573-5.13847E+01-7.04638E+03-3.85216E+02
 -1      1574-5.45393E+01-7.74785E+03-3.93421E+02
 -1      1575-4.99257E+01-6.72391E+03-3.81025E+02
 -1      1576-4.45481E+01-6.28940E+03-3.77740E+02
 -1      1577-4.27821E+01-5.93890E+03-3.72167E+02
 -1      1578-4.11582E+01-5.62499E+03-3.66712E+02
 -1      1579-4.59472E+01-6.19125E+03-3.76974E+02
 -1      1580-4.27785E+01-5.53125E+03-3.65730E+02
 -1      1581-4.67755E+01-6.02084E+03-3.70700E+02
 -1      1582-4.54457E+01-5.70453E+03-3.65251E+02
 -1      1583-4.83750E+01-6.37307E+03-3.76133E+02
 -1      1584-4.40405E+01-5.39549E+03-3.59688E+02
 -1      1585 5.13170E+00-3.35149E+02-9.53997E+01
 -1      1586 6.86653E+00-2.94665E+02-8.12361E+01
 -1      1587 8.42880E+00-2.26148E+02-6.14134E+01
 -1      1588 4.70509E+00-2.12460E+02-7.55852E+01
 -1      1589 5.07518E+00-9.32138E+01-4.00303E+01
 -1      1590 4.37596E+00-1.06110E+02-5.16604E+01
 -1      1591 3.07441E+00-1.30417E+02-6.26573E+01
 -1      1592-2.44911E+01-2.16218E+03-2.64253E+02
 -1      1593-2.05011E+01-1.99529E+03-2.54977E+02
 -1      1594-7.99808E+01-1.33887E+04-4.23243E+02
 -1      1595-8.21837E+01-1.37925E+04-4.26245E+02
 -1      1596-7.78187E+01-1.29212E+04-4.24411E+02
 -1      1597-9.14095E+01-1.56794E+04-4.28367E+02
 -1      1598-8.95270E+01-1.52840E+04-4.28101E+02
 -1      1599-2.35666E+01-5.51053E+02-1.41555E+02
 -1      1600-8.37814E+01-1.41029E+04-4.27246E+02
 -1      1601-8.12603E+01-1.35590E+04-4.26802E+02
 -1      1602-8.13184E+01-1.35816E+04-4.19520E+02
 -1      1603-7.99358E+01-1.32718E+04-4.22960E+02
 -1      1604-7.72904E+01-1.27338E+04-4.25466E+02
 -1      1605-7.86871E+01-1.30049E+04-4.24573E+02
 -1      1606-7.62713E+01-1.24899E+04-4.21685E+02
 -1      1607-7.84956E+01-1.30271E+04-4.09457E+02
 -1      1608-8.54902E+01-1.44557E+04-4.27635E+02
 -1      1609-8.44545E+01-1.42217E+04-4.26487E+02
 -1      1610-8.76894E+01-1.49042E+04-4.28075E+02
 -1      1611-8.46136E+01-1.42785E+04-4.21273E+02
 -1      1612-8.29705E+01-1.39259E+04-4.21700E+02
 -1      1613-8.78677E+01-1.49542E+04-4.24171E+02
 -1      1614-8.58191E+01-1.45661E+04-4.17049E+02
 -1      1615-6.87319E+01-1.08719E+04-4.03555E+02
 -1      1616-7.47510E+01-1.21671E+04-4.16971E+02
 -1      1617-7.57680E+01-1.24371E+04-4.06836E+02
 -1      1618-7.66214E+01-1.26943E+04-3.96994E+02
 -1      1619 0.00000E+00 0.00000E+00 0.00000E+00
 -1      1620 0.00000E+00 0.00000E+00 0.00000E+00
 -1      1621 0.00000E+00 0.00000E+00 0.00000E+00
 -1      1622 0.00000E+00 0.00000E+00 0.00000E+00
 -1      1623 0.00000E+00 0.00000E+00 0.00000E+00
 -1      1624 0.00000E+00 0.00000E+00 0.00000E+00
 -1      1625 0.00000E+00 0.00000E+00 0.00000E+00
 -1      1626 0.00000E+00 0.00000E+00 0.00000E+00
 -1      1627 0.00000E+00 0.00000E+00 0.00000E+00
 -1      1628 0.00000E+00 0.00000E+00 0.00000E+00
 -1      1629 0.00000E+00 0.00000E+00 0.00000E+00
 -1      1630 0.00000E+00 0.00000E+00 0.00000E+00
 -1      1631 0.00000E+00 0.00000E+00 0.00000E+00
 -1      1632 0.00000E+00 0.00000E+00 0.00000E+00
 -1      1633 0.00000E+00 0.00000E+00 0.00000E+00
 -1      1634 0.00000E+00 0.00000E+00 0.00000E+00
 -1      1635 0.00000E+00 0.00000E+00 0.00000E+00
 -1      1636 0.00000E+00 0.00000E+00 0.00000E+00
 -1      1637 0.00000E+00 0.00000E+00 0.00000E+00
 -1      1638 0.00000E+00 0.00000E+00 0.00000E+00
 -1      1639 0.00000E+00 0.00000E+00 0.00000E+00
 -1      1640 0.00000E+00 0.00000E+00 0.00000E+00
 -1      1641-8.14086E+01-1.69561E+04-1.28393E+00
 -1      1642-8.05800E+01-1.69011E+04 1.01603E+01
 -1      1643-8.06312E+01-1.68551E+04 1.38713E+00
 -1      1644-8.27982E+01-1.68345E+04-5.83012E+01
 -1      1645-8.81852E+01-1.70703E+04-1.58643E+02
 -1      1646-8.31393E+01-1.70415E+04-3.21018E+01
 -1      1647-7.53571E+01-1.68441E+04 1.38274E+02
 -1      1648-7.20633E+01-1.68638E+04 2.27797E+02
 -1      1649-8.80678E+01-1.68455E+04-1.95189E+02
 -1      1650-7.20523E+01-1.68867E+04 2.32189E+02
 -1      1651-7.20555E+01-1.69139E+04 2.37023E+02
 -1      1652-8.02981E+01-1.68738E+04 1.29620E+01
 -1      1653-8.88222E+01-1.68882E+04-2.09071E+02
 -1      1654-8.88634E+01-1.68652E+04-2.13449E+02
 -1      1655-7.24811E+01-1.69414E+04 2.31344E+02
 -1      1656-7.48135E+01-1.69700E+04 1.75016E+02
 -1      1657-8.00880E+01-1.69276E+04 2.79592E+01
 -1      1658-8.90158E+01-1.69424E+04-2.04681E+02
 -1      1659-8.86043E+01-1.69149E+04-1.98911E+02
 -1      1660-8.11657E+01-1.69845E+04 1.03667E+01
 -1      1661-8.49432E+01-1.70131E+04-8.37205E+01
 -1      1662-8.77618E+01-1.69705E+04-1.65948E+02
 -1      1663-1.60409E+01-4.33056E+03-1.10866E+02
 -1      1664-1.95331E+01-4.19490E+03-1.55342E+01
 -1      1665-2.27285E+01-4.81732E+03-1.63540E+01
 -1      1666-2.02858E+01-4.96445E+03-1.15461E+02
 -1      1667-2.53801E+01-5.36021E+03-2.18382E+01
 -1      1668-2.87649E+01-6.02294E+03-2.26632E+01
 -1      1669-2.36797E+01-5.51594E+03-1.23702E+02
 -1      1670-7.32520E+01-1.42419E+04-1.38485E+02
 -1      1671-7.30499E+01-1.46717E+04-7.19960E+01
 -1      1672-6.93368E+01-1.43899E+04-6.43497E+00
 -1      1673-8.06972E+00-1.98719E+03-1.51305E+01
 -1      1674-1.05952E+01-2.48365E+03-1.81590E+01
 -1      1675-2.03899E-01-2.07326E+03-9.12185E+01
 -1      1676-3.25836E+01-6.78435E+03-2.55086E+01
 -1      1677-3.26747E+01-6.95895E+03-1.33201E+02
 -1      1678-3.61260E+01-7.48335E+03-2.61741E+01
 -1      1679-3.96777E+01-8.19619E+03-2.67122E+01
 -1      1680-4.12630E+01-8.38493E+03-1.38353E+02
 -1      1681-4.33168E+01-8.91987E+03-2.72070E+01
 -1      1682-7.07408E+01-1.44934E+04-3.23899E+01
 -1      1683-7.44345E+01-1.52525E+04-3.25248E+01
 -1      1684-4.55494E+01-9.11455E+03-1.40420E+02
 -1      1685-8.63401E+01-1.64533E+04-1.96008E+02
 -1      1686-2.79090E+01-6.18814E+03-1.27576E+02
 -1      1687 6.84146E-01-1.27997E+01-9.28031E+00
 -1      1688-1.38134E+01-2.98613E+03 7.74657E+00
 -1      1689-1.45732E+01-3.14514E+03 6.77018E+00
 -1      1690-1.33742E+01-2.90625E+03 6.89967E+00
 -1      1691-3.86838E+00-2.57994E+03-9.89319E+01
 -1      1692-3.70130E+01-7.66566E+03-1.36092E+02
 -1      1693-2.07469E+01-4.48011E+03 1.49102E+01
 -1      1694-2.02698E+01-4.38809E+03 1.33447E+01
 -1      1695-1.92908E+01-4.17222E+03 1.40591E+01
 -1      1696-7.02335E-01-7.89779E+00-7.87723E+00
 -1      1697-4.29047E-01-8.39581E+00-8.45941E+00
 -1      1698 1.57536E+00-1.78441E+01 1.34701E+01
 -1      1699 2.98845E-01-4.54130E+01 1.11680E+00
 -1      1700 4.25667E-01-4.13762E+01 1.26583E+00
 -1      1701-7.57018E+01-1.59215E+04 1.55151E+01
 -1      1702-7.61401E+01-1.60172E+04 1.63746E+01
 -1      1703-6.92610E+01-1.63095E+04 2.33940E+02
 -1      1704-8.74579E+01-1.66087E+04-2.07422E+02
 -1      1705-8.70225E+01-1.65130E+04-2.08282E+02
 -1      1706-1.32420E+01-2.67011E+03-8.18376E+00
 -1      1707-1.73232E+01-2.93380E+03-4.68960E+01
 -1      1708-1.19704E+01-2.59173E+03 4.18349E+00
 -1      1709-1.63582E+01-2.85142E+03-3.41074E+01
 -1      1710-4.64128E+01-9.82197E+03 1.61339E+01
 -1      1711-4.70074E+01-9.95246E+03 1.80189E+01
 -1      1712-4.53820E+01-9.62407E+03 1.95033E+01
 -1      1713-4.80081E+01-1.02186E+04 2.50588E+01
 -1      1714-4.86150E+01-1.03494E+04 2.69467E+01
 -1      1715-5.24821E+01-1.12496E+04 4.09656E+01
 -1      1716-5.22682E+01-1.11146E+04 2.76574E+01
 -1      1717-5.40842E+01-1.14905E+04 2.72923E+01
 -1      1718-2.10346E+01-4.54685E+03 2.02029E+01
 -1      1719-1.95637E+01-4.23788E+03 1.91737E+01
 -1      1720-5.81849E+01-1.13482E+04-1.44333E+02
 -1      1721-5.77492E+01-1.17982E+04-3.63770E+01
 -1      1722-5.45120E+01-1.13053E+04-6.81023E+00
 -1      1723-1.09748E+00-1.14942E+01 8.97502E+00
 -1      1724-3.27974E+01-6.99036E+03 1.50783E+01
 -1      1725-3.30171E+01-7.06704E+03 2.10586E+01
 -1      1726-3.18359E+01-6.81524E+03 2.30824E+01
 -1      1727-3.15841E+01-6.74087E+03 1.71004E+01
 -1      1728-5.30904E+01-1.11529E+04 9.42772E+00
 -1      1729-5.32782E+01-1.13151E+04 2.54852E+01
 -1      1730-5.16915E+01-1.09859E+04 2.54904E+01
 -1      1731-5.14982E+01-1.08241E+04 9.47875E+00
 -1      1732-8.79519E+00-2.00308E+03 1.04196E+01
 -1      1733-9.39177E+00-2.11057E+03 1.39411E+01
 -1      1734-8.61712E+00-1.94497E+03 1.81225E+01
 -1      1735-7.94134E+00-1.84449E+03 1.45396E+01
 -1      1736 8.47015E-01-1.65618E+01 1.34488E+01
 -1      1737-5.49353E+01-1.16786E+04 3.14479E+01
 -1      1738-5.65289E+01-1.19207E+04 1.76601E+01
 -1      1739-5.69220E+01-1.20844E+04 2.96883E+01
 -1      1740-2.21918E+01-4.81994E+03 2.10864E+01
 -1      1741-2.16661E+01-4.72693E+03 1.94669E+01
 -1      1742-2.59428E-01-1.47184E+02 3.29327E+00
 -1      1743-8.82310E-01-2.27300E+02 5.19176E+00
 -1      1744-5.87337E-01-2.26856E+02 5.78640E+00
 -1      1745 6.37154E-02-1.44813E+02 3.86404E+00
 -1      1746-1.40881E+01-3.11687E+03 1.92622E+01
 -1      1747-1.47542E+01-3.28035E+03 1.84855E+01
 -1      1748-3.42637E+01-7.14976E+03-1.34486E+00
 -1      1749-3.15889E+01-6.84790E+03 2.51711E+01
 -1      1750-3.54200E+01-7.29437E+03-1.16289E+01
 -1      1751-2.38671E-01-2.31939E+02 5.23264E+00
 -1      1752-1.01140E+00-2.87423E+02 5.47953E-01
 -1      1753-9.49808E-01-2.00273E+02-2.62670E+00
 -1      1754-8.09218E+01-1.66357E+04-3.35078E+01
 -1      1755-2.48126E+01-5.27654E+03 8.05568E+00
 -1      1756-2.50984E+01-5.44693E+03 1.78027E+01
 -1      1757-2.34974E+01-5.11566E+03 1.71159E+01
 -1      1758-9.84800E+00-2.15979E+03 1.62432E+01
 -1      1759-2.89913E+01-5.48456E+03-4.82390E+01
 -1      1760-2.74320E+01-5.15221E+03-4.80555E+01
 -1      1761-3.43876E+01-7.37290E+03 2.18069E+01
 -1      1762-4.18426E+01-8.21301E+03-5.33585E+01
 -1      1763-3.82461E+01-8.16770E+03 1.94998E+01
 -1      1764-3.64820E+01-7.80094E+03 1.88692E+01
 -1      1765-4.01145E+01-7.84559E+03-5.34954E+01
 -1      1766-1.46982E+01-3.25764E+03 3.01700E+01
 -1      1767-1.53749E+01-3.39070E+03 2.02129E+01
 -1      1768-2.31181E+01-4.37068E+03-3.98737E+01
 -1      1769-2.15332E+01-4.02183E+03-3.86119E+01
 -1      1770-1.85526E+01-4.03975E+03 1.31833E+01
 -1      1771-1.79889E+01-3.10441E+03-4.15985E+01
 -1      1772-1.37495E+01-3.07834E+03 1.32995E+01
 -1      1773-2.21539E+01-4.24132E+03-2.86050E+01
 -1      1774-7.15013E+01-1.63923E+04 1.89217E+02
 -1      1775-1.02044E+01-2.28139E+03 1.11803E+01
 -1      1776 1.56184E-01-4.43295E+01 2.19703E+00
 -1      1777-4.72113E+01-1.00328E+04 2.44626E+01
 -1      1778-4.55997E+01-9.70383E+03 2.59470E+01
 -1      1779-5.38952E+01-1.08047E+04-5.22983E+01
 -1      1780-5.04551E+01-1.06964E+04 1.97821E+01
 -1      1781-5.29266E+01-1.06764E+04-4.19422E+01
 -1      1782-7.01067E+01-1.47258E+04 1.27163E+01
 -1      1783-7.00103E+01-1.48148E+04 2.66312E+01
 -1      1784-6.94232E+01-1.46957E+04 2.75056E+01
 -1      1785-6.95143E+01-1.46068E+04 1.35925E+01
 -1      1786-6.78544E+01-1.43430E+04 2.38943E+01
 -1      1787-6.72719E+01-1.42240E+04 2.47584E+01
 -1      1788-1.78009E+01-3.69752E+03-3.13555E+00
 -1      1789-1.64923E+01-3.42784E+03-3.51851E+00
 -1      1790-1.60564E+01-3.55432E+03 1.90015E+01
 -1      1791-1.72937E+01-3.82785E+03 1.99337E+01
 -1      1792-3.34874E+01-7.16627E+03 2.39877E+01
 -1      1793-2.31395E+01-4.82963E+03-1.48404E+00
 -1      1794-3.59045E+01-7.48347E+03-1.86139E+00
 -1      1795-3.44729E+01-6.82987E+03-3.52129E+01
 -1      1796-5.79283E+01-1.19949E+04-1.05373E+01
 -1      1797-5.59029E+01-1.15890E+04-8.64412E+00
 -1      1798-2.55305E+01-5.52614E+03 2.43859E+01
 -1      1799-2.49432E+01-5.31241E+03 1.55566E+01
 -1      1800-2.63865E+01-5.62149E+03 1.60699E+01
 -1      1801-2.70163E+01-5.83852E+03 2.50127E+01
 -1      1802-2.27517E+01-4.65498E+03-1.01902E+01
 -1      1803-4.96582E+01-1.05628E+04 2.52199E+01
 -1      1804-5.02445E+01-1.06910E+04 2.73599E+01
 -1      1805-3.59205E-01-1.20943E+02-2.16421E+00
 -1      1806-3.78273E+01-7.98067E+03 8.94318E+00
 -1      1807-1.05804E+01-2.33581E+03 1.33715E+01
 -1      1808-2.43391E+01-4.98936E+03-1.04840E+01
 -1      1809-2.62915E+01-5.58350E+03 8.21618E+00
 -1      1810 2.20837E-01-8.63665E+01 3.15757E+00
 -1      1811-4.91103E+01-1.01461E+04-1.23326E+01
 -1      1812-4.79898E+01-1.00058E+04-1.36552E+00
 -1      1813-4.52713E+01-9.68265E+03 2.70215E+01
 -1      1814-4.80752E+00-4.57689E+02-1.82502E+01
 -1      1815-3.78217E+00-3.42172E+02-1.15233E+01
 -1      1816-3.73415E+00-3.33046E+02-1.61926E+01
 -1      1817-3.39953E+01-6.65239E+03-4.51372E+01
 -1      1818-3.12441E+01-6.66867E+03 1.48952E+01
 -1      1819-3.01736E+01-6.27259E+03-4.16460E+00
 -1      1820-1.09972E+01-2.09075E+03-1.04793E+01
 -1      1821-1.53216E+01-2.32331E+03-4.38202E+01
 -1      1822-1.63137E+01-2.16131E+03-5.75663E+01
 -1      1823-7.85007E+01-1.64987E+04 1.37480E+01
 -1      1824 9.54919E-02-2.11276E+01 1.40879E+00
 -1      1825-5.50010E-01-8.59020E+01 2.49718E+00
 -1      1826 4.54278E-01-2.35060E+01-1.48949E+01
 -1      1827-9.50469E-01-2.26207E+01 1.50899E+01
 -1      1828-4.74429E+01-9.47610E+03-4.84487E+01
 -1      1829-4.48289E+01-9.49194E+03 1.60169E+01
 -1      1830-4.36057E+01-9.06618E+03-4.52474E+00
 -1      1831-5.07599E+01-1.04901E+04-1.23252E+01
 -1      1832-4.97430E+01-1.03625E+04-2.06277E+00
 -1      1833-5.68336E+01-1.19082E+04 1.02258E+01
 -1      1834-1.54480E+00-4.04663E+02 1.28851E+00
 -1      1835-1.68034E+01-3.69428E+03-2.21616E+01
 -1      1836-1.25929E+01-3.82058E+03-1.14085E+02
 -1      1837-8.42473E+00-3.23768E+03-1.07870E+02
 -1      1838-3.28093E+01-6.47729E+03-3.54044E+01
 -1      1839-2.88909E+01-6.10065E+03 5.29811E+00
 -1      1840-5.73973E+01-1.21780E+04 2.58927E+01
 -1      1841-5.70351E+01-1.19438E+04 5.69221E+00
 -1      1842-5.49852E+01-1.15168E+04 5.45227E+00
 -1      1843-5.53609E+01-1.17503E+04 2.55883E+01
 -1      1844-3.33362E-01-2.09859E+02 2.30797E+00
 -1      1845-1.04969E-01-2.99717E+02 5.71948E+00
 -1      1846-3.49901E+00-2.47915E+02-1.10827E+01
 -1      1847-3.09607E+00-1.67053E+02-1.18780E+01
 -1      1848-4.61803E+01-9.29078E+03-3.81523E+01
 -1      1849-4.22943E+01-8.88247E+03 5.63921E+00
 -1      1850-4.79448E+01-9.66592E+03-3.76196E+01
 -1      1851-2.04640E+00-5.31389E+02 2.54065E+00
 -1      1852-5.61709E+01-1.19263E+04 2.73983E+01
 -1      1853-5.42428E+00-1.30990E+03 9.01922E+00
 -1      1854-4.90287E+00-1.17044E+03 7.96423E+00
 -1      1855-6.09145E+00-1.38473E+03 5.85761E+00
 -1      1856-6.68393E+00-1.53430E+03 6.67232E+00
 -1      1857-1.67058E+01-3.66758E+03 2.07889E+01
 -1      1858-3.48608E+01-7.47425E+03 2.47766E+01
 -1      1859-7.15118E+00-1.60210E+03 6.79843E+00
 -1      1860-2.15299E+01-4.52503E+03 1.03405E+00
 -1      1861-1.21324E+01-2.75230E+03 1.71383E+01
 -1      1862-1.26947E+01-2.82854E+03 1.80659E+01
 -1      1863-4.17761E+01-8.68562E+03-4.49444E+00
 -1      1864-3.94376E+01-8.31488E+03 9.02889E+00
 -1      1865-4.05988E+01-8.53713E+03 6.09938E+00
 -1      1866-1.64088E+01-2.41409E+03-5.79035E+01
 -1      1867-1.67611E+01-2.58539E+03-4.81850E+01
 -1      1868 4.18389E-01-5.07220E+00-6.93387E-02
 -1      1869-5.66883E+01-1.12818E+04-6.22358E+01
 -1      1870-5.82350E+01-1.14091E+04-8.60994E+01
 -1      1871 2.11473E-01-8.62185E+01 1.85006E+00
 -1      1872-1.31708E-02-6.61708E+01-1.46048E+00
 -1      1873-2.84861E+01-5.92191E+03-4.11230E+00
 -1      1874-2.73163E+01-5.78290E+03 5.71133E+00
 -1      1875-7.63920E+01-1.61346E+04 2.51263E+01
 -1      1876-6.95251E+01-1.64269E+04 2.42715E+02
 -1      1877-6.28534E-01-1.30926E+02 4.79363E+00
 -1      1878-5.50795E+01-1.10972E+04-4.61632E+01
 -1      1879-5.26495E+01-1.11169E+04 1.58353E+01
 -1      1880-1.80566E+01-3.95632E+03 2.08394E+01
 -1      1881-5.92795E+00-1.37331E+03 9.18257E+00
 -1      1882-6.61669E+01-1.39903E+04 2.35981E+01
 -1      1883-6.47127E+01-1.36800E+04 2.31504E+01
 -1      1884-6.93389E+01-1.43164E+04-1.85856E+01
 -1      1885-7.27402E+01-1.46077E+04-7.08134E+01
 -1      1886-1.38939E+01-2.95968E+03 7.32558E+00
 -1      1887-1.45280E+01-3.09365E+03 1.79658E+01
 -1      1888-6.07508E+00-1.36213E+03 1.48893E+01
 -1      1889-7.15472E+00-1.56140E+03 2.30250E+01
 -1      1890-7.45727E+00-1.55230E+03 2.63324E+00
 -1      1891-6.45559E+00-1.35729E+03-4.41453E+00
 -1      1892-1.19950E+01-2.41859E+03-6.84965E+00
 -1      1893-1.05386E+01-2.33056E+03 6.83099E+00
 -1      1894-1.45152E+00-3.96451E+02 1.76178E+00
 -1      1895-2.17507E+00-5.33867E+02 2.04381E+00
 -1      1896-1.38126E+01-3.12454E+03-2.07225E+01
 -1      1897-3.77358E+01-7.99259E+03 1.69882E+01
 -1      1898-3.84398E+01-8.22763E+03 2.65773E+01
 -1      1899-4.01702E+01-8.59258E+03 2.74678E+01
 -1      1900-3.94388E+01-8.35559E+03 1.78200E+01
 -1      1901-4.32385E+01-9.22483E+03 2.48104E+01
 -1      1902-4.38045E+01-9.35578E+03 2.82927E+01
 -1      1903-3.95002E+00-4.56333E+02-9.78256E+00
 -1      1904-5.20707E+00-5.73233E+02-1.42865E+01
 -1      1905-5.86272E+00-5.73992E+02-2.29373E+01
 -1      1906-6.53439E+00-6.67578E+02-2.13768E+01
 -1      1907-3.14602E+00-6.82171E+02-2.44079E-01
 -1      1908-3.21157E+00-7.85089E+02 3.39465E+00
 -1      1909-3.71750E+01-7.66254E+03-1.17405E+01
 -1      1910-8.81073E-01-6.57400E+01 5.69804E+00
 -1      1911-1.57344E+01-3.35870E+03 3.26832E+00
 -1      1912 1.85325E-01-7.90332E+00 4.32322E-01
 -1      1913-4.14039E+01-8.84330E+03 2.46017E+01
 -1      1914-6.27520E+01-1.32733E+04 2.38258E+01
 -1      1915-6.53100E+01-1.38166E+04 2.54541E+01
 -1      1916-5.92107E+01-1.21165E+04-2.81884E+01
 -1      1917-5.61880E+01-1.18912E+04 2.04312E+01
 -1      1918-6.00210E+01-1.21694E+04-4.29621E+01
 -1      1919-2.13316E+01-4.63606E+03 3.17103E+01
 -1      1920-2.33346E+01-4.97626E+03 1.45807E+01
 -1      1921-2.36112E+01-5.06700E+03 2.63850E+01
 -1      1922-2.80827E+01-6.06840E+03 2.25631E+01
 -1      1923-2.97817E+01-6.42093E+03 2.29437E+01
 -1      1924-1.57039E+01-1.95380E+03-6.19896E+01
 -1      1925-5.18781E+01-1.09304E+04 1.49852E+01
 -1      1926-5.02616E+01-1.05878E+04 1.46408E+01
 -1      1927-7.81550E+01-1.63344E+04 1.98849E+00
 -1      1928-7.41265E+00-1.69352E+03 1.46780E+01
 -1      1929-8.03860E+00-1.72317E+03 5.08439E+00
 -1      1930-9.25386E+00-1.97444E+03 8.06833E+00
 -1      1931-1.08229E+01-2.49971E+03 1.75658E+01
 -1      1932-1.35725E-01-7.44025E+01 4.23043E+00
 -1      1933-2.16766E+00-4.13680E+02 4.19539E+00
 -1      1934-1.29380E+00-2.77946E+02-1.31460E-01
 -1      1935-1.09748E+00-3.15101E+02 7.33624E+00
 -1      1936-2.00590E+00-4.61880E+02 1.31216E+01
 -1      1937-2.37782E+01-5.15324E+03 2.22088E+01
 -1      1938-5.88995E+01-1.24059E+04 1.48773E+01
 -1      1939-6.13837E+01-1.29205E+04 1.47025E+01
 -1      1940-5.96892E+01-1.25932E+04 1.82671E+01
 -1      1941-5.85735E+01-1.23591E+04 1.95621E+01
 -1      1942-6.10744E+01-1.29451E+04 2.74095E+01
 -1      1943-6.08484E+01-1.30367E+04 4.68124E+01
 -1      1944-5.83556E+01-1.24500E+04 3.89114E+01
 -1      1945-5.45628E+01-1.14808E+04 1.18743E+01
 -1      1946-4.58886E-02-8.35659E+01-1.89820E-02
 -1      1947-2.51518E+01-5.40675E+03 3.13594E+01
 -1      1948-1.67885E+01-3.65498E+03 9.35839E+00
 -1      1949-2.07368E+01-3.97728E+03-2.57921E+01
 -1      1950-4.37614E-01-1.35093E+02-8.20616E-01
 -1      1951-5.50815E+00-1.16617E+03 5.45346E+00
 -1      1952-4.73796E+00-1.10918E+03 1.49029E+01
 -1      1953-5.75954E+01-1.17054E+04-3.66361E+01
 -1      1954-6.76616E+01-1.39637E+04-1.88324E+01
 -1      1955-1.04453E+01-1.88603E+03-1.63326E+01
 -1      1956-1.17701E+00-1.53211E+02 6.34611E+00
 -1      1957-1.23601E+00-2.11770E+02 9.63919E+00
 -1      1958-1.64453E+01-3.52495E+03 2.16611E+01
 -1      1959-1.71717E+01-3.66497E+03 1.11841E+01
 -1      1960-5.38558E+01-1.10564E+04-2.38479E+01
 -1      1961-5.47664E+01-1.13738E+04-5.11376E+00
 -1      1962-7.27761E+01-1.48936E+04-3.62745E+01
 -1      1963-1.06151E+01-1.48756E+03-3.60408E+01
 -1      1964-9.79244E+00-1.43915E+03-2.65423E+01
 -1      1965-6.39376E+00-1.25741E+03-4.08950E+00
 -1      1966-7.36592E+00-1.30271E+03-1.30270E+01
 -1      1967-5.19898E+01-1.08493E+04 3.72219E+00
 -1      1968-6.66662E+00-1.50776E+03 1.25896E+01
 -1      1969-5.62740E+00-1.29861E+03 1.11268E+01
 -1      1970-6.58400E+00-1.33251E+03 7.04667E+00
 -1      1971-7.16890E+01-1.50554E+04 1.26769E+01
 -1      1972-7.16008E+01-1.51444E+04 2.66060E+01
 -1      1973-7.06683E+01-1.48885E+04 2.01250E+01
 -1      1974-6.97621E+01-1.48582E+04 3.98585E+01
 -1      1975-7.25152E+01-1.51749E+04 6.83750E+00
 -1      1976-2.32851E+01-5.06222E+03 1.97766E+01
 -1      1977-7.52961E-01-3.23184E+02 6.53567E+00
 -1      1978-7.35630E+01-1.55331E+04 2.51506E+01
 -1      1979-3.01367E+01-6.49148E+03 2.51367E+01
 -1      1980-7.93158E+01-1.59173E+04-7.66402E+01
 -1      1981-7.58293E+01-1.54749E+04-4.12393E+01
 -1      1982-7.46362E+01-1.58171E+04 3.40605E+01
 -1      1983-4.46175E+01-9.33928E+03 1.88144E+01
 -1      1984-4.69225E+01-9.65315E+03-2.75992E+01
 -1      1985-4.52046E+01-9.22130E+03-4.82643E+01
 -1      1986-3.78177E+01-7.88524E+03 1.86120E+01
 -1      1987-3.78217E+01-7.77829E+03-4.67508E+01
 -1      1988-3.06089E+01-6.38579E+03-4.46373E+01
 -1      1989-3.12792E+01-6.47893E+03 1.82294E+01
 -1      1990-4.18744E+01-8.94772E+03 2.76823E+01
 -1      1991-2.15408E+01-3.67771E+03-5.30313E+01
 -1      1992-2.85833E+01-6.16490E+03 2.53969E+01
 -1      1993-2.26727E+00-6.07168E+02 8.88084E+00
 -1      1994-1.87909E+00-6.08871E+02 9.48673E+00
 -1      1995-6.15590E+01-1.27233E+04-1.40675E+01
 -1      1996-4.74641E+01-1.01411E+04 3.38489E+01
 -1      1997-4.52682E+01-9.76849E+03 4.87593E+01
 -1      1998-6.80085E+01-1.43592E+04 2.26661E+01
 -1      1999-1.13441E+01-2.55561E+03 1.64793E+01
 -1      2000-7.20378E+01-1.48851E+04-1.78268E+01
 -1      2001-7.20014E+01-1.45991E+04-5.23837E+01
 -1      2002-1.57923E+00-4.45106E+02 7.70248E+00
 -1      2003-9.81066E+00-2.03413E+03 2.37465E+01
 -1      2004-1.03941E+01-2.22530E+03 3.25269E+01
 -1      2005-5.21116E+01-1.10647E+04 2.82853E+01
 -1      2006-1.17737E+01-2.63572E+03 2.42735E+01
 -1      2007-6.31190E+01-1.34127E+04 3.27370E+01
 -1      2008-5.59453E+00-7.25234E+02-1.26949E+01
 -1      2009-4.28861E+00-1.04953E+03 1.14210E+01
 -1      2010-6.68009E+00-1.68101E+03 1.35732E+01
 -1      2011-7.78362E+00-1.74694E+03 6.46810E+00
 -1      2012-1.11384E+01-1.95781E+03-2.39761E+01
 -1      2013-6.22936E+01-1.21022E+04-1.45110E+02
 -1      2014-7.73660E+00-8.66978E+02-2.25814E+01
 -1      2015-1.20952E+00-6.05899E+00-7.21533E+00
 -1      2016-2.50072E+00-1.27272E+01-1.03954E+01
 -1      2017-1.12510E+01-1.13714E+03-4.56233E+01
 -1      2018-9.59044E+00-1.02795E+03-3.21507E+01
 -1      2019-9.26763E+00-9.69418E+02-3.51862E+01
 -1      2020-5.77656E+00-1.14508E+03 1.60764E+01
 -1      2021-2.50521E+01-5.43412E+03 2.18817E+01
 -1      2022-2.65200E+01-5.74336E+03 2.22526E+01
 -1      2023-4.07021E+00-1.11849E+03 1.18381E+01
 -1      2024-3.96994E+01-8.48891E+03 2.44331E+01
 -1      2025-1.09055E+01-2.25489E+03 1.09306E+01
 -1      2026-6.85922E+01-1.43078E+04-1.49665E-01
 -1      2027-5.82015E+01-1.23647E+04 2.92917E+01
 -1      2028-7.79576E+01-1.63949E+04 1.98504E+01
 -1      2029-3.79057E+01-8.12138E+03 3.48405E+01
 -1      2030-9.71355E+00-2.22590E+03 1.22373E+01
 -1      2031-6.24968E+00-1.10874E+03-8.74905E+00
 -1      2032-1.29541E+01-2.75942E+03 1.40391E+01
 -1      2033-4.23427E+01-8.94555E+03 1.55773E+01
 -1      2034-2.90403E+01-6.16212E+03 1.41848E+01
 -1      2035-8.45989E+00-1.77603E+03 1.60393E+01
 -1      2036-6.83449E+01-1.45216E+04 3.50081E+01
 -1      2037-1.22921E+01-2.17752E+03-2.36053E+01
 -1      2038 2.14176E-01-3.73131E+00-7.84869E-01
 -1      2039 2.01020E+00-5.64037E+00 6.44837E+00
 -1      2040 1.64869E-01-3.51152E+01-1.23548E+00
 -1      2041-2.98986E+00-6.20477E+02 1.22279E+01
 -1      2042-7.38472E+01-1.55933E+04 2.40311E+01
 -1      2043-3.60748E+01-7.64947E+03 1.74545E+01
 -1      2044-3.62727E+01-7.74601E+03 2.83537E+01
 -1      2045-3.37114E+01-7.26181E+03 3.47772E+01
 -1      2046-4.20625E+01-9.08663E+03 5.32450E+01
 -1      2047-4.26354E+01-9.08512E+03 3.01791E+01
 -1      2048-4.39655E+01-9.41708E+03 3.88480E+01
 -1      2049-4.42958E+01-9.35367E+03 1.61545E+01
 -1      2050-6.16442E+01-1.29085E+04 8.77701E+00
 -1      2051-3.65174E+01-7.81554E+03 2.44065E+01
 -1      2052-2.04073E+01-3.38088E+03-5.78343E+01
 -1      2053-8.38199E+00-8.03965E+02-3.14126E+01
 -1      2054-7.74449E+01-1.64386E+04 3.66293E+01
 -1      2055-7.64403E+01-1.58895E+04-5.53784E+00
 -1      2056-5.04849E+01-1.06967E+04 2.40269E+01
 -1      2057-3.30982E+01-6.13301E+03-6.77377E+01
 -1      2058-4.61133E+01-8.92067E+03-7.36771E+01
 -1      2059-7.44570E+01-1.52734E+04-3.28075E+01
 -1      2060-6.76158E+01-1.40204E+04-1.05015E+01
 -1      2061-6.58246E+01-1.39547E+04 2.99856E+01
 -1      2062-2.77076E+01-5.94206E+03 3.00200E+01
 -1      2063-2.92975E+01-6.25303E+03 2.46192E+01
 -1      2064-3.80994E+01-8.15346E+03 2.42275E+01
 -1      2065 1.01962E-01-2.44685E+01-2.06596E+00
 -1      2066-1.10198E+01-2.40973E+03 2.09700E+01
 -1      2067-1.85360E+01-3.95398E+03 1.09919E+01
 -1      2068-5.93783E+01-1.23604E+04-1.35683E+00
 -1      2069-3.61610E+01-7.74169E+03 2.20813E+01
 -1      2070-2.85385E+00-3.52412E+02 1.41221E+01
 -1      2071-1.58553E+00-2.57638E+02 5.10438E+00
 -1      2072-7.36006E+01-1.54759E+04 1.52919E+01
 -1      2073-2.75127E+00-7.58242E+02 9.81875E+00
 -1      2074-2.72653E+01-4.82885E+03-6.63213E+01
 -1      2075-3.95797E+01-7.48632E+03-7.46212E+01
 -1      2076-2.85733E+00-6.74562E+02 2.14526E+00
 -1      2077-5.29633E+01-1.03607E+04-7.73119E+01
 -1      2078-5.35607E+01-1.06534E+04-5.78900E+01
 -1      2079-8.70715E+01-1.64901E+04-2.12656E+02
 -1      2080-7.25973E+01-1.65429E+04 1.73763E+02
 -1      2081-7.90329E+01-1.61778E+04-4.02808E+01
 -1      2082-7.79954E+01-1.61069E+04-2.19308E+01
 -1      2083-8.60394E+01-1.64192E+04-1.94315E+02
 -1      2084-4.12466E+00-9.47074E+02 2.71006E+00
 -1      2085-1.95639E+01-4.25327E+03 2.82286E+01
 -1      2086-1.68497E+01-3.58010E+03-2.95389E+01
 -1      2087-1.71095E+01-3.57887E+03 1.60215E+01
 -1      2088-1.67208E+01-3.36624E+03 4.20953E+01
 -1      2089-1.60625E+01-3.36119E+03-2.34766E+00
 -1      2090-4.63831E+00-9.79011E+02 5.78842E+00
 -1      2091-3.72465E+00-7.90705E+02-4.80039E+00
 -1      2092-4.46446E+00-7.72143E+02 1.12862E+01
 -1      2093-5.54213E+00-9.65542E+02 2.32977E+01
 -1      2094-2.74927E+01-5.67880E+03 3.18428E+01
 -1      2095-3.94297E+00-9.27193E+02 1.44520E+01
 -1      2096-7.17844E+01-1.51054E+04 1.61989E+01
 -1      2097-1.10821E+01-1.62961E+03-3.06737E+01
 -1      2098-6.11398E+01-1.24395E+04-3.81277E+01
 -1      2099-5.99978E+01-1.26765E+04 1.98012E+01
 -1      2100-6.39363E+01-1.32847E+04-5.38863E+00
 -1      2101-5.97154E+01-1.23733E+04-9.60851E+00
 -1      2102-7.48924E+01-1.59517E+04 4.23338E+01
 -1      2103-4.10938E+01-8.69152E+03 2.49605E+01
 -1      2104-4.16210E+01-8.69137E+03 1.97060E+00
 -1      2105-7.06126E+01-1.40541E+04-8.35465E+01
 -1      2106-6.80800E+01-1.37562E+04-5.49420E+01
 -1      2107-8.00363E+01-1.65332E+04-2.28074E+01
 -1      2108-4.68134E+01-9.89392E+03 2.19426E+01
 -1      2109-4.61454E+01-9.95283E+03 5.87743E+01
 -1      2110-4.88948E+01-1.04285E+04 3.83488E+01
 -1      2111-6.59287E+01-1.37946E+04 6.89922E+00
 -1      2112-1.16908E+01-2.44537E+03-1.55031E+00
 -1      2113-7.36940E+01-1.55260E+04 1.88075E+01
 -1      2114-7.01920E+01-1.50208E+04 5.06874E+01
 -1      2115-3.00793E+00-6.20392E+02-1.11130E+00
 -1      2116-3.62700E+00-5.44740E+02 1.15694E+01
 -1      2117-3.81133E+01-7.94017E+03-1.35971E+00
 -1      2118-3.51250E+01-7.37911E+03 9.34136E+00
 -1      2119-2.57353E+01-4.52370E+03-6.30034E+01
 -1      2120-7.15900E+01-1.43415E+04-7.32204E+01
 -1      2121-1.51115E+01-3.11883E+03 2.29150E+01
 -1      2122-1.45130E+01-3.11604E+03-2.04362E+01
 -1      2123-3.20711E+01-6.93971E+03 4.03668E+01
 -1      2124-3.15596E+01-5.81446E+03-6.65854E+01
 -1      2125-4.44516E+01-8.57485E+03-7.28123E+01
 -1      2126-6.30376E+01-1.27663E+04-5.34519E+01
 -1      2127-5.99791E+01-1.21699E+04-4.96952E+01
 -1      2128-5.94053E+01-1.25343E+04 2.56636E+01
 -1      2129-5.03426E+01-1.08588E+04 5.57078E+01
 -1      2130-6.51425E+01-1.36957E+04 1.32898E+01
 -1      2131-2.90964E+01-6.28812E+03 4.91077E+01
 -1      2132-2.80790E+01-5.92044E+03 2.27618E+01
 -1      2133-2.82062E+01-5.88860E+03-1.38136E+00
 -1      2134-4.90360E+01-1.02681E+04 6.80020E+00
 -1      2135-2.25152E+01-4.73717E+03 9.23986E+00
 -1      2136-1.40334E+01-2.92469E+03 3.90211E+01
 -1      2137-4.07543E+01-8.70857E+03 3.29111E+01
 -1      2138-5.66346E+01-1.17372E+04-8.23638E+00
 -1      2139-5.55290E+01-1.18644E+04 4.55288E+01
 -1      2140-5.35229E+01-1.13293E+04 3.00885E+01
 -1      2141-1.48970E+00-2.66751E+02-4.46169E-01
 -1      2142-2.28748E+00-2.25802E+02 1.24631E+01
 -1      2143-9.07270E-01-3.06052E+02-9.41937E+00
 -1      2144-1.57555E+01-3.29462E+03 9.27210E-01
 -1      2145-7.86127E+01-1.58943E+04-6.44545E+01
 -1      2146-6.51987E+01-1.36390E+04 4.96190E+00
 -1      2147-6.37262E+01-1.33291E+04 4.53178E+00
 -1      2148-3.97839E+00-8.41547E+02-1.01423E+00
 -1      2149-1.92796E+00-4.03924E+02-1.94437E+00
 -1      2150 8.41789E-01-1.23256E+02-6.84696E+00
 -1      2151 5.35255E+00-4.48975E+01-1.76581E+01
 -1      2152 3.07317E-01-2.50066E+01-2.66673E+00
 -1      2153-3.71153E+00-1.02079E+02-1.40194E+01
 -1      2154 9.93933E+00-3.15675E+02-4.48126E+01
 -1      2155-3.79881E+01-7.15235E+03-7.36155E+01
 -1      2156-4.05354E+01-8.53542E+03 3.23748E+01
 -1      2157-1.27911E+00-9.98120E+01 4.81836E+00
 -1      2158-8.30743E-01-1.23299E+02-3.47530E-01
 -1      2159-3.61368E+00-7.87508E+02 1.02393E+01
 -1      2160-3.24389E+00-7.93812E+02 1.33479E+01
 -1      2161-2.50950E+01-5.23872E+03-2.74115E-01
 -1      2162-2.90187E+00-5.91847E+02 3.03035E-01
 -1      2163-2.49966E+00-7.48259E+02-1.32091E+01
 -1      2164-4.65666E+00-7.78354E+02 7.86836E+00
 -1      2165-5.98529E+01-1.18193E+04-7.77884E+01
 -1      2166-6.84604E+01-1.43614E+04 1.19204E+01
 -1      2167-4.56730E+00-9.36358E+02 1.87130E-02
 -1      2168-7.04735E+00-9.77333E+02 2.37159E+01
 -1      2169-5.69217E+01-1.10022E+04-1.65055E+02
 -1      2170-5.40561E+01-1.05980E+04-1.43313E+02
 -1      2171-5.23664E+01-1.05692E+04-6.47586E+01
 -1      2172-4.98031E+01-1.01677E+04-4.34256E+01
 -1      2173-7.30871E+01-1.49005E+04-4.30906E+01
 -1      2174-7.31130E+01-1.51866E+04-8.51577E+00
 -1      2175-5.35230E+01-1.09702E+04-2.23508E+01
 -1      2176-5.12524E+01-1.00039E+04-7.63544E+01
 -1      2177-2.45557E+01-5.17090E+03 2.35412E+01
 -1      2178-2.21171E+01-4.67119E+03 3.22910E+01
 -1      2179-7.66113E+01-1.54988E+04-6.11360E+01
 -1      2180-3.07602E+00-5.65144E+01-1.14540E+01
 -1      2181-6.54847E+01-1.39111E+04 3.52128E+01
 -1      2182-6.29905E+01-1.27896E+04-4.25904E+01
 -1      2183-7.75783E+01-1.58234E+04-4.61052E+01
 -1      2184-2.58187E+00-6.04501E+02 6.06609E+00
 -1      2185-4.52071E+01-9.50450E+03 1.86722E+01
 -1      2186-4.58503E+01-9.44778E+03-1.79533E+01
 -1      2187-2.36302E+00-1.69787E+02-6.86621E+00
 -1      2188-1.16169E+01-1.28706E+03-4.24067E+01
 -1      2189-6.35106E+01-1.34007E+04 2.28872E+01
 -1      2190 4.61752E-01-2.72056E+02-7.97441E+00
 -1      2191 8.10351E+00-1.40901E+02-2.99424E+01
 -1      2192-6.25081E+00-1.15120E+03 9.65746E+00
 -1      2193-7.97632E+00-1.37311E+03 2.72798E+01
 -1      2194-4.99711E+00-1.11941E+03-9.06594E+00
 -1      2195-6.23525E+01-1.30846E+04 9.64473E+00
 -1      2196-6.33238E+01-1.33516E+04 1.74336E+01
 -1      2197-2.66754E+01-5.58154E+03 4.29886E+00
 -1      2198-2.65754E+01-5.61049E+03 4.19481E+01
 -1      2199-2.33183E+01-5.00516E+03-4.81603E+01
 -1      2200-4.05728E+00-1.00228E+03 7.42614E+00
 -1      2201 1.00269E+00-7.67476E+02-2.79980E+01
 -1      2202-3.54889E+00-1.00801E+03-9.18129E+00
 -1      2203 7.94695E+00-9.71062E+02-7.42027E+01
 -1      2204-6.80002E+01-1.44933E+04 4.24690E+01
 -1      2205-6.62790E+01-1.34120E+04-5.07368E+01
 -1      2206-7.75822E+01-1.66390E+04 6.14297E+01
 -1      2207-7.89454E+01-1.61614E+04-3.50371E+01
 -1      2208-4.38498E+01-9.11569E+03-3.15417E+00
 -1      2209-4.98059E+01-9.85296E+03-1.42024E+02
 -1      2210-8.63461E+01-1.66962E+04-1.59197E+02
 -1      2211-6.10649E+01-1.24661E+04-3.26210E+01
 -1      2212-3.77180E+01-7.97784E+03 2.45304E+01
 -1      2213-3.47991E+01-7.41597E+03 3.48660E+01
 -1      2214-6.79239E+01-1.35984E+04-7.61510E+01
 -1      2215-6.53736E+01-1.29821E+04-9.08594E+01
 -1      2216-6.36852E+01-1.32525E+04-1.17698E+00
 -1      2217-6.61189E+01-1.38686E+04 1.37165E+01
 -1      2218-1.25665E+01-2.30057E+03 2.49984E+01
 -1      2219-5.40873E+01-1.13312E+04 1.28596E+01
 -1      2220-5.10444E+01-1.09249E+04 5.09847E+01
 -1      2221-6.21549E+00-1.35692E+03-3.95195E+00
 -1      2222-6.78568E+00-1.57264E+03-1.36567E+01
 -1      2223-8.79915E+00-1.53382E+03 1.74062E+01
 -1      2224-3.44039E+00-8.91027E+02 1.05889E+01
 -1      2225-5.82570E+01-1.23908E+04 3.76787E+01
 -1      2226-6.39705E+01-1.30563E+04-3.48593E+01
 -1      2227 5.37264E+00-1.32232E+03-8.04022E+01
 -1      2228-7.52730E+01-1.54120E+04-3.68545E+01
 -1      2229-7.53305E-01-1.63072E+02-2.23218E+00
 -1      2230-2.07037E+01-4.35171E+03 6.29970E+00
 -1      2231-6.49939E+01-1.32586E+04-3.95136E+01
 -1      2232-6.79754E+01-1.44211E+04 3.51303E+01
 -1      2233-7.11866E+01-1.48492E+04 2.29296E+00
 -1      2234-6.86602E+01-1.42663E+04-4.93852E+00
 -1      2235-9.97777E+00-2.24831E+03-2.80380E+01
 -1      2236-1.19150E+01-2.50784E+03-7.81397E+00
 -1      2237-3.30662E+01-7.09093E+03 5.51175E+01
 -1      2238-3.34459E+01-7.05491E+03 1.52604E+01
 -1      2239-3.15980E+01-6.72659E+03 3.40005E+01
 -1      2240 2.22869E+00-1.75574E+03-9.01968E+01
 -1      2241-3.08732E+01-6.61055E+03 3.09190E+01
 -1      2242-8.21299E+00-1.77225E+03-1.32971E+01
 -1      2243-9.55719E+00-2.02881E+03-7.20738E+00
 -1      2244-8.13255E+01-1.66676E+04-3.26455E+01
 -1      2245-1.08021E+01-2.27313E+03-2.05300E+00
 -1      2246-1.28192E+01-2.53922E+03 1.94335E+01
 -1      2247-3.97782E+01-8.31730E+03 4.91065E+00
 -1      2248-7.08498E+01-1.37262E+04-1.45227E+02
 -1      2249-4.79654E+01-9.92889E+03-1.02975E+01
 -1      2250 1.27655E-01-3.35815E+00-3.70778E-01
 -1      2251-6.50733E-01-4.55450E+01 1.17219E+00
 -1      2252-6.16235E+01-1.27496E+04-1.16695E+01
 -1      2253-3.06321E+01-6.48892E+03 1.38333E+01
 -1      2254-3.03195E+01-6.30856E+03-3.03225E+00
 -1      2255-6.04811E+01-1.29396E+04 4.79091E+01
 -1      2256-3.43352E+01-7.19440E+03 3.48682E+01
 -1      2257-3.18144E+01-6.66623E+03 1.73849E+01
 -1      2258-1.85985E+01-3.88206E+03-5.19700E+00
 -1      2259-7.78189E+01-1.64066E+04 2.45800E+01
 -1      2260-1.78105E+01-3.98985E+03-4.87758E+01
 -1      2261-1.98943E+01-4.07004E+03 2.84061E+01
 -1      2262-1.81052E+01-3.75909E+03 2.77341E+00
 -1      2263-4.79522E+00-1.72513E+03-5.07755E+01
 -1      2264-8.84870E+00-1.80437E+03 4.45306E+00
 -1      2265-3.25574E+00-1.19195E+03-2.58054E+01
 -1      2266-6.67745E+01-1.37144E+04-2.63191E+01
 -1      2267-1.85401E+01-3.96742E+03 1.98297E+01
 -1      2268-1.37952E+01-2.86502E+03 2.77393E+00
 -1      2269-3.40262E+01-7.06072E+03-9.65976E+00
 -1      2270-6.09881E+00-1.67943E+03-1.83737E+01
 -1      2271-2.36642E+01-4.92349E+03-8.50735E+00
 -1      2272-2.57056E+01-5.35626E+03 8.98452E+00
 -1      2273-4.99594E+01-1.04800E+04 1.58119E+01
 -1      2274-5.08589E+01-1.04063E+04-3.12272E+01
 -1      2275-1.54660E+01-3.09845E+03 1.57022E+01
 -1      2276-1.14881E+01-2.76358E+03-3.03711E+01
 -1      2277-1.43963E+01-3.30981E+03-3.24380E+01
 -1      2278-2.55813E+01-5.31634E+03 4.15411E+00
 -1      2279-2.70784E+01-5.63481E+03-1.23827E+01
 -1      2280-1.78718E+01-3.81812E+03 3.75955E+01
 -1      2281-1.30210E+01-2.56934E+03 1.47739E+01
 -1      2282-1.50707E+01-2.84930E+03 3.78533E+01
 -1      2283-3.91086E+01-8.35684E+03 4.61255E+01
 -1      2284-1.79448E+01-3.66164E+03 2.22087E+01
 -1      2285-2.09461E+01-4.35457E+03 2.85463E+00
 -1      2286-5.51404E-01-9.96094E+00 1.49881E+00
 -1      2287-1.37533E+00-3.99119E+01 6.52796E+00
 -1      2288-1.98939E+01-4.19644E+03 2.48655E+01
 -1      2289-7.09482E+01-1.46064E+04-2.24005E+01
 -1      2290-7.42113E+01-1.50347E+04-5.52605E+01
 -1      2291-2.08472E+01-4.34580E+03 9.67434E-01
 -1      2292-7.00371E+01-1.42143E+04-4.99125E+01
 -1      2293 9.79335E-01-5.88483E+02-1.80147E+01
 -1      2294 9.52700E+00-4.70078E+02-4.81704E+01
 -1      2295 2.39417E+00-4.15071E+02-2.09807E+01
 -1      2296-5.88315E+01-1.22218E+04-3.64916E+00
 -1      2297 4.28720E-01-4.61581E+00-2.57722E+00
 -1      2298-8.29594E+00-1.58455E+03 1.95866E+01
 -1      2299-1.06606E+01-2.05428E+03 1.79669E+01
 -1      2300-2.21603E+01-4.63750E+03-2.55801E+01
 -1      2301 8.46798E+00-7.66024E+02-5.96065E+01
 -1      2302-3.24249E+00-3.24341E+02 1.11874E+01
 -1      2303-2.43405E+01-5.04286E+03 2.49536E+01
 -1      2304-7.31714E+01-1.51777E+04-7.89199E+00
 -1      2305-7.30471E+01-1.53770E+04 2.00300E+01
 -1      2306-5.72448E+01-1.20484E+04 2.10018E+01
 -1      2307-7.75418E+01-1.64407E+04 3.36646E+01
 -1      2308 2.50546E+00-5.82140E+02-3.13028E+01
 -1      2309-1.11546E+00-8.10291E+01 3.26582E+00
 -1      2310 6.47130E-01-4.10025E+02-1.54510E+01
 -1      2311-2.11333E+01-4.59914E+03-5.11208E+01
 -1      2312-6.57129E+00-1.96886E+03-4.05132E+01
 -1      2313-2.20334E+00-2.07878E+02 6.88892E+00
 -1      2314-3.05001E+01-6.39953E+03 4.11630E+01
 -1      2315-3.25462E+01-6.79004E+03 1.46717E+01
 -1      2316-4.33574E+01-9.22331E+03 4.42614E+01
 -1      2317-4.60182E+01-9.64585E+03 1.55636E+01
 -1      2318-1.69143E+00-5.21559E+02-9.20955E+00
 -1      2319-3.72227E+01-7.70699E+03-1.12536E+01
 -1      2320-3.20569E+00-4.66899E+02 6.93063E+00
 -1      2321-4.22268E+01-8.83383E+03 1.18064E+01
 -1      2322-2.89632E+01-6.03440E+03 1.10194E+01
 -1      2323-7.27804E+01-1.52891E+04 1.63219E+01
 -1      2324-2.28919E+01-4.75234E+03 7.10379E+00
 -1      2325-3.70214E+01-7.80699E+03 3.48732E+01
 -1      2326-3.52898E+01-7.37752E+03 9.75281E+00
 -1      2327-3.86450E+01-8.08282E+03 9.95307E+00
 -1      2328-4.75915E+01-1.00804E+04 3.67358E+01
 -1      2329-6.71023E+01-1.38750E+04-1.32844E+01
 -1      2330-7.89307E+01-1.66215E+04 1.94234E+01
 -1      2331-2.86571E+01-5.99243E+03 1.69075E+01
 -1      2332-4.17690E+01-8.77779E+03 1.84219E+01
 -1      2333-4.05794E+01-8.39225E+03-1.35789E+01
 -1      2334-1.54776E+01-3.58190E+03-5.22939E+01
 -1      2335-7.22899E+01-1.47855E+04-3.54401E+01
 -1      2336-5.34139E+01-1.09600E+04-2.79267E+01
 -1      2337-5.93384E+01-1.18583E+04-7.88131E+01
 -1      2338-5.51251E+01-1.16776E+04 3.41404E+01
 -1      2339-3.88403E+01-8.11426E+03 1.16590E+01
 -1      2340-7.60706E+01-1.50674E+04-1.00985E+02
 -1      2341-7.66277E+01-1.56203E+04-4.32999E+01
 -1      2342-3.57858E+01-7.48551E+03 1.49843E+01
 -1      2343-4.80812E+01-9.73199E+03-6.41522E+01
 -1      2344-9.19946E+00-2.45841E+03-4.57191E+01
 -1      2345-8.70937E-02-1.60007E+01 1.93275E+00
 -1      2346 1.72587E+00-2.80648E+00-4.85106E+00
 -1      2347-8.25617E+01-1.59383E+04-1.59248E+02
 -1      2348-7.84259E+01-1.56089E+04-9.27366E+01
 -1      2349-5.63779E+00-1.35551E+03-6.82694E+00
 -1      2350-1.28543E+01-2.70803E+03-2.14073E+01
 -1      2351-5.65372E+00-2.86949E+03-1.14135E+02
 -1      2352-6.68736E+01-1.29679E+04-1.44913E+02
 -1      2353-6.47275E+01-1.24754E+04-1.58589E+02
 -3
    1PSTEP                         2           1           1          
  100CL  101 1.000000000        2353                     0    1           1
 -4  STRESS      6    1
 -5  SXX         1    4    1    1
 -5  SYY         1    4    2    2
 -5  SZZ         1    4    3    3
 -5  SXY         1    4    1    2
 -5  SYZ         1    4    2    3
 -5  SZX         1    4    3    1
 -1         1-1.00045E+08-1.08559E+08-2.46683E+08-1.00380E+07 1.75514E+08-6.35092E+07
 -1         2 2.68957E+04-9.28297E+03 6.02980E+04-8.06499E+03-1.87656E+04 3.85789E+04
 -1         3 7.56487E+04-1.69755E+04 1.06685E+05-2.03505E+04 5.15755E+04-3.51498E+04
 -1         4-4.32502E+07-5.00550E+07-1.27742E+08 9.16552E+06 1.10409E+08 1.90483E+07
 -1         5 7.14803E+04 8.27312E+03 3.76052E+05-4.01554E+04-2.51485E+04-2.36472E+05
 -1         6-2.46499E+07-2.48511E+07-1.20456E+08 1.46880E+07 1.33345E+08 1.90424E+07
 -1         7 2.56813E+07 2.22807E+07-1.85502E+08 3.71044E+06 6.79023E+07-2.33701E+06
 -1         8 9.53169E+06-9.63802E+06-2.86628E+08-2.67455E+06 4.45835E+07 9.78302E+06
 -1         9-1.46727E+07-1.86828E+07-1.76115E+08 3.16296E+06 2.16580E+07-8.83050E+06
 -1        10 5.92419E+06-3.20536E+06-1.78736E+08 7.02538E+04-2.76736E+06 4.05516E+06
 -1        11 4.89602E+06-4.89645E+05-2.02577E+08-3.93587E+06-8.21876E+06-4.73238E+06
 -1        12 1.06542E+07 1.45021E+07-2.10633E+08-5.87522E+06-1.23914E+07-5.45621E+06
 -1        13 5.68864E+06 4.59239E+06-1.71123E+08 1.68858E+06-5.13751E+06-2.26231E+06
 -1        14-1.21615E+07-2.06337E+07-1.39657E+08-5.25270E+06-3.14035E+06 7.54579E+06
 -1        15 1.01344E+07 1.04768E+07-1.39177E+08 1.11647E+05-2.76239E+06 4.50065E+05
 -1        16 6.66086E+05-1.68330E+06-1.29734E+08 1.66147E+06-7.46928E+06-2.70591E+06
 -1        17-6.14410E+05 1.49014E+06-1.24716E+08-2.03006E+06-8.90763E+06 5.25969E+06
 -1        18-1.60208E+06-6.23414E+06-9.62202E+07 3.58771E+05-7.34893E+06 2.33921E+06
 -1        19-6.97413E+05 1.06637E+05-9.69396E+07 5.77412E+05-1.16246E+07-4.40720E+06
 -1        20 4.42610E+05-1.95756E+04-8.77794E+07-8.02938E+05-7.06885E+06 3.03283E+06
 -1        21-1.38931E+06-1.02805E+05-7.71828E+07-2.60705E+05-8.45252E+06 7.42780E+05
 -1        22 6.38049E+05-7.51467E+05-6.39560E+07-6.44498E+05-6.23112E+06 3.27167E+06
 -1        23-1.14168E+06-1.40042E+05-5.76437E+07 1.95388E+05-8.13403E+06-8.59720E+05
 -1        24 2.11399E+05-2.20766E+04-4.94350E+07-5.58747E+05-5.46777E+06 2.36808E+06
 -1        25-7.81328E+05-9.20624E+04-4.20476E+07-1.74147E+05-5.89248E+06 8.54094E+05
 -1        26 1.92920E+05-4.61719E+05-3.33264E+07-3.86690E+05-4.47513E+06 2.06176E+06
 -1        27-5.30187E+05-1.35596E+05-2.84330E+07 1.13142E+05-5.30731E+06 3.43819E+05
 -1        28-1.21152E+06-2.86574E+06-1.66890E+07 1.93397E+05-4.73797E+06 2.16090E+06
 -1        29 1.82720E+06 1.35862E+06-2.42407E+07-4.30188E+05-3.82284E+06 9.24774E+05
 -1        30-6.99548E+05-1.27547E+06-9.09365E+06-1.20463E+05-2.83962E+06 6.32416E+05
 -1        31-2.40726E+03-5.85460E+05-8.20516E+06-2.52346E+05-2.43502E+06-8.61616E+05
 -1        32 2.27496E+05 2.47671E+05-7.30412E+06-9.69469E+04-1.72368E+06 3.46526E+05
 -1        33-7.58248E+04-2.54923E+05-3.12595E+06-4.31479E+04-1.29205E+06 2.03637E+05
 -1        34 1.09110E+05-1.88417E+05-1.44294E+06-3.56690E+04-9.13382E+05-2.47491E+05
 -1        35-1.54572E+04-5.36475E+04-3.19180E+05-5.12826E+04-4.31375E+05-1.49534E+05
 -1        36-7.07615E+06-4.43709E+07-2.10605E+08 1.06307E+07 1.28990E+08-4.19319E+07
 -1        37 2.62638E+07 9.16855E+06-2.73788E+08-1.16791E+07 6.89168E+07 1.93954E+07
 -1        38-2.40939E+07-1.00288E+07-1.96187E+08-1.01033E+07 3.84344E+07 6.20727E+06
 -1        39-8.50139E+06-2.09098E+07-2.30010E+08-7.44150E+06 2.39233E+06 8.95736E+06
 -1        40-7.03624E+04-1.66311E+07-1.96184E+08-9.33459E+06-1.50018E+07 1.98469E+07
 -1        41 1.47477E+07-2.44522E+07-1.56289E+08-7.51144E+06-1.91794E+07-1.49204E+06
 -1        42 4.89172E+06 7.48201E+06-1.91106E+08-6.05392E+06-8.64751E+06-2.49629E+07
 -1        43 8.07357E+06-5.47033E+06-1.57759E+08-3.22504E+06-1.05341E+07-6.92998E+06
 -1        44 7.10998E+06 3.75047E+06-1.33795E+08-9.54680E+06-1.43132E+06-6.64952E+06
 -1        45 1.05613E+07 5.09363E+06-1.19649E+08-3.20193E+06-9.16004E+06-1.06913E+07
 -1        46 3.09641E+06-3.92756E+06-1.35830E+08-5.56956E+06-1.18602E+07-3.70331E+06
 -1        47 3.75145E+06 5.20000E+05-1.02731E+08-4.63056E+06-1.13769E+07-5.27085E+06
 -1        48 4.91705E+06-2.33035E+06-8.13002E+07-4.10866E+06-1.29690E+07-4.92978E+06
 -1        49 2.06100E+06-4.70848E+05-9.96078E+07-4.08951E+06-1.30928E+07-7.28018E+06
 -1        50 5.00782E+06 1.27713E+06-6.90623E+07-3.71807E+06-1.08226E+07-1.38415E+06
 -1        51 3.32514E+06 7.14677E+05-7.16902E+07-3.50309E+06-1.00604E+07-2.12177E+06
 -1        52 4.12686E+06 6.54957E+05-4.87071E+07-2.82963E+06-9.53213E+06-9.24694E+05
 -1        53 1.66243E+06 3.54621E+05-5.54753E+07-2.53719E+06-9.35517E+06-2.86554E+06
 -1        54 3.07152E+06 9.63586E+05-3.83167E+07-2.08930E+06-7.58765E+06-2.10913E+05
 -1        55 1.98870E+06 6.55864E+05-3.79931E+07-1.91012E+06-6.80999E+06-6.19133E+05
 -1        56 2.12859E+06 4.01193E+05-2.51608E+07-1.40631E+06-6.27648E+06 1.45802E+05
 -1        57-9.70207E+05 2.35278E+05-2.93242E+07-1.37473E+06-6.59576E+06 9.30646E+05
 -1        58 4.02077E+05-6.83694E+05-1.48634E+07 2.60844E+05-4.35135E+06 4.07105E+06
 -1        59 2.09083E+06 1.58484E+06-1.50914E+07 1.46808E+05-4.50090E+06 9.36363E+04
 -1        60-7.33319E+05-1.57809E+06-8.14979E+06-6.27890E+05-3.07173E+06 4.79763E+05
 -1        61-8.03731E+05-1.03115E+06-9.33310E+06-3.56568E+05-2.45088E+06-1.08067E+05
 -1        62 2.10977E+05-1.20237E+05-4.81450E+06-8.08089E+04-1.69875E+06-6.94591E+04
 -1        63 4.83279E+05 3.61185E+04-1.76666E+06-1.09138E+05-1.15348E+06-1.07546E+05
 -1        64 1.07024E+05-1.08810E+05-1.05306E+06-5.08679E+04-8.03542E+05-9.53355E+04
 -1        65-3.35550E+03-5.21431E+04-5.17519E+04-4.68940E+04-2.25189E+05-4.20217E+04
 -1        66-3.76717E+05-1.14834E+04-1.94367E+04-2.84850E+04-2.12382E+04-2.22629E+05
 -1        67-1.29500E+06 2.82081E+04 2.23780E+05-1.52094E+05-1.13333E+04 1.53112E+04
 -1        68-1.55744E+06 6.64497E+04 3.72723E+05-3.45338E+05-3.19747E+03 1.00933E+06
 -1        69-2.34174E+05-1.61016E+05-1.39398E+05-3.93245E+05-1.34513E+05 1.80025E+06
 -1        70 7.63693E+05 1.19919E+04-3.10733E+05-5.98418E+05 1.60025E+03 1.06790E+06
 -1        71-1.07957E+05 2.14483E+04 3.33255E+04-2.91067E+03-7.12785E+03-1.01762E+05
 -1        72-8.50571E+05-3.81671E+04 3.52518E+04-1.10506E+05-1.12556E+04-8.82803E+04
 -1        73-1.35484E+06 1.00705E+05 2.47054E+05-2.29049E+05-3.32630E+04 3.89436E+05
 -1        74-7.48300E+05 1.15026E+04 1.15816E+05-2.11787E+05-4.36926E+04 1.21343E+06
 -1        75 3.68621E+04-1.93494E+05-3.33894E+05-4.64888E+05-5.69751E+03 1.34740E+06
 -1        76 6.82904E+05 1.12718E+05-1.98979E+04-3.68493E+05 1.13435E+05 4.85376E+05
 -1        77 7.29550E+06 4.61676E+06-1.37861E+08-6.64011E+06-1.47076E+07-3.88263E+06
 -1        78 1.87338E+06-9.27472E+05-1.30447E+08-3.80884E+06-2.40336E+06 1.30222E+06
 -1        79 3.75946E+05-1.06326E+05-1.12162E+08 3.21651E+05-1.03404E+06 1.64281E+06
 -1        80-1.26158E+06 2.25870E+05-9.64427E+07 5.98201E+05-1.12195E+06 3.02942E+06
 -1        81-1.10613E+06-2.55519E+05-7.90207E+07 1.10613E+06-1.34954E+06 1.99428E+06
 -1        82-8.02361E+05-8.81741E+05-6.57737E+07 8.77007E+05-6.96047E+05 3.02827E+06
 -1        83-1.06017E+06-7.96542E+05-5.29304E+07 1.35193E+06 8.77633E+05 3.09214E+06
 -1        84-7.72370E+05-6.55951E+05-3.78848E+07 4.00849E+05-2.71464E+05 1.95594E+06
 -1        85 1.40812E+03-2.33039E+05-2.68349E+07 5.47218E+05-8.46020E+05 1.46295E+06
 -1        86 4.23376E+05-2.36431E+05-1.95525E+07 8.24277E+05-1.86806E+06 1.09208E+06
 -1        87-1.94984E+05-1.10041E+05-1.38729E+07 4.23468E+05-9.21468E+05 1.26505E+06
 -1        88 5.64071E+04 1.89574E+04-7.90491E+06 3.14855E+05-3.48145E+05 5.05657E+05
 -1        89-1.23343E+05-2.13984E+04-4.31780E+06 7.42591E+04-2.14887E+05 8.12627E+05
 -1        90 4.39558E+04-1.15896E+05-8.58746E+05 1.36683E+05-3.23988E+05 3.67903E+05
 -1        91-1.22755E+07-5.93671E+06-1.57449E+08 7.17511E+06 3.62779E+07 5.63510E+06
 -1        92 2.07495E+06-3.25589E+06-1.33094E+08-2.99848E+06 9.85070E+06-1.46178E+06
 -1        93 8.68381E+05 6.61192E+05-1.27351E+08-2.16425E+06-4.37350E+06 1.99926E+06
 -1        94-8.87686E+05-3.66372E+06-1.09001E+08-2.07488E+06-1.49079E+06 1.52890E+06
 -1        95-3.27497E+06 4.34838E+06-9.24501E+07-3.18329E+05-6.27727E+05 1.87991E+06
 -1        96-1.13798E+06 2.31745E+05-7.53658E+07-1.20842E+06-2.62208E+06 2.05451E+06
 -1        97-1.02690E+06 2.95984E+06-5.98310E+07-1.56211E+06-1.84901E+06 2.57872E+06
 -1        98-2.03586E+06 1.52210E+06-4.69704E+07 7.69702E+05-1.53860E+05 2.29772E+06
 -1        99-1.97728E+06 2.10607E+06-3.59940E+07 5.75767E+05-1.38521E+06 2.07531E+06
 -1       100-1.52426E+06 1.75402E+06-2.63736E+07-2.92694E+05-1.13967E+06 1.41907E+06
 -1       101-7.30945E+03-8.27205E+05-1.76714E+07-3.78091E+05-1.90385E+06 9.02802E+05
 -1       102-5.72760E+05 8.26578E+05-1.16212E+07 7.56952E+04-6.21121E+05 9.42178E+05
 -1       103 1.71431E+05-8.34872E+05-6.07213E+06 9.84821E+04-6.06008E+05 6.61801E+05
 -1       104-4.14951E+05-2.66852E+05-2.76081E+06 2.10741E+04 8.71525E+03 5.75990E+05
 -1       105 4.06821E+04-1.22923E+05-3.73196E+05 8.35580E+04-1.44560E+05 2.08258E+05
 -1       106 1.83959E+08 2.02906E+08 4.81775E+08 4.23220E+06 4.03601E+07 1.04982E+08
 -1       107 3.63535E+08 2.77150E+08 9.54597E+08 7.91281E+06-2.37120E+07 5.51373E+07
 -1       108 4.22861E+08 3.78858E+08 1.07983E+09-2.48506E+07-8.94130E+07-6.27724E+06
 -1       109 3.18851E+08 3.22882E+08 7.57833E+08-7.41391E+05-5.23337E+07-4.28357E+07
 -1       110 1.00323E+08 1.00415E+08 2.34108E+08-3.70028E+03 3.48259E+07-1.88262E+07
 -1       111 9.40085E+07 8.34261E+07 1.73007E+08 8.73639E+06 1.28904E+08 5.45245E+07
 -1       112 3.25016E+08 3.26294E+08 7.54683E+08-1.17735E+06-4.78498E+07 7.36474E+07
 -1       113 4.78307E+08 4.80443E+08 1.11440E+09 1.95190E+05-1.03447E+08 2.51913E+07
 -1       114 4.17894E+08 4.18540E+08 9.73649E+08 4.52364E+05-9.57795E+07-2.75774E+07
 -1       115 2.06276E+08 2.05921E+08 4.80578E+08-1.49222E+04-1.02266E+07-3.77566E+07
 -1       116-2.17591E+07-2.15734E+07-5.02011E+07 2.76829E+05 8.68243E+07-3.67464E+06
 -1       117 1.08858E+05 1.96697E+04 2.91729E+05-5.36876E+04-1.29071E+04-1.34423E+05
 -1       118-7.26495E+06 7.39712E+05-1.85195E+08 7.28990E+04-2.40065E+06 4.51807E+06
 -1       119-7.82198E+06 1.59765E+06-1.77243E+08-1.33917E+06 4.31199E+06 5.23604E+06
 -1       120-1.48032E+06 1.03021E+06-1.44925E+08-4.83812E+05-1.39692E+06 1.38854E+04
 -1       121-3.72265E+06 1.34070E+06-1.22001E+08-5.29274E+05 2.78577E+06-9.20972E+05
 -1       122-1.44161E+06 1.18095E+06-9.75663E+07-5.91999E+05-3.61492E+04-1.66906E+06
 -1       123-3.01056E+06 7.62792E+05-7.96155E+07-8.89039E+05 1.18514E+06-1.04262E+06
 -1       124-1.21118E+06-4.46029E+04-6.45942E+07 5.48954E+00-8.97446E+04 5.88040E+05
 -1       125 2.59692E+05-1.39170E+06-4.66916E+07-1.89392E+05-6.53042E+05-1.36572E+06
 -1       126 1.80460E+05-1.16357E+06-3.32151E+07 1.70146E+05-1.68938E+06-1.22143E+06
 -1       127 1.18918E+06-1.02375E+06-2.31235E+07-1.38922E+04 1.27084E+05-1.79511E+06
 -1       128-2.57238E+05 1.91953E+05-1.61962E+07-1.36312E+05 4.75538E+05-3.74765E+05
 -1       129 4.55502E+05 4.92238E+02-8.55864E+06-7.69740E+04 1.35834E+05-4.71319E+05
 -1       130-2.10146E+04-2.71362E+04-4.32061E+06-1.38982E+05 1.37709E+05 1.38246E+05
 -1       131 1.16365E+05-2.57046E+05-4.96027E+05 4.03651E+04 1.40379E+04 8.93447E+03
 -1       132-1.13440E+07-2.95544E+06-1.75110E+08-2.24305E+05-8.70559E+06 1.49165E+07
 -1       133-5.02404E+06 4.10506E+06-1.73909E+08-4.66947E+05-3.19395E+06 5.99015E+06
 -1       134-5.64655E+06 3.10858E+05-1.63880E+08-1.00042E+05-1.84005E+06 3.19880E+06
 -1       135 5.18729E+05 2.34920E+06-1.32036E+08-2.40310E+05-3.38081E+06-2.02794E+05
 -1       136-5.53223E+06-1.21398E+06-1.14333E+08-3.03871E+05-2.22814E+06-9.08766E+05
 -1       137-1.75709E+06 4.79326E+05-9.10976E+07 7.47947E+05-2.00005E+06-8.73286E+05
 -1       138-2.80522E+06-1.53298E+05-7.28037E+07 5.45590E+04-6.25735E+05 1.51186E+04
 -1       139-1.81286E+06 9.05848E+05-5.68654E+07-5.10603E+05 1.15317E+06-1.77838E+05
 -1       140-1.73901E+06-7.79145E+05-4.33166E+07-1.94323E+06 1.02289E+05-1.47232E+05
 -1       141-2.44110E+06-1.57425E+06-3.22436E+07 6.22550E+04 9.41373E+05-6.00008E+05
 -1       142 6.92455E+05-3.24560E+05-1.98828E+07 2.22105E+05-3.61009E+05-7.82957E+05
 -1       143-7.41449E+05-1.80302E+05-1.33451E+07-1.96295E+03-1.58416E+05-2.08643E+05
 -1       144 6.89124E+05-1.36773E+05-6.08331E+06 1.28136E+05-2.11499E+05-1.25592E+05
 -1       145-4.78230E+04-3.73733E+05-2.35738E+06 6.44005E+04 1.80660E+04 7.08955E+04
 -1       146 1.02923E+05-7.83080E+04-6.56688E+04 3.46739E+04-6.98212E+03-4.39369E+04
 -1       147-2.22511E+07-2.78225E+07-8.77486E+07 1.64590E+07 2.06354E+08 1.29274E+07
 -1       148-2.55066E+08-2.13755E+08-7.07236E+08 1.27069E+07 2.73800E+07-9.47088E+07
 -1       149-3.78828E+08-3.54977E+08-9.11054E+08-8.64686E+06-8.29240E+07-3.66130E+07
 -1       150-3.59448E+08-2.87869E+08-9.64371E+08 1.78547E+07-3.06822E+07 2.77148E+06
 -1       151-2.47004E+08-1.68070E+08-6.63579E+08-4.20989E+06-2.26244E+06 2.92359E+07
 -1       152-1.23962E+08-9.84743E+07-3.13130E+08 7.10120E+05 2.68321E+07 1.92683E+07
 -1       153-2.60910E+08-2.42964E+08-5.57205E+08 4.16971E+06 9.75155E+07-1.22864E+08
 -1       154-3.48819E+08-3.49719E+08-8.14763E+08 2.77994E+05-5.75177E+07-5.55001E+07
 -1       155-4.36627E+08-4.37473E+08-1.01783E+09-1.56198E+05-1.15111E+08-1.94836E+07
 -1       156-3.93663E+08-3.93970E+08-9.17954E+08 1.78078E+05-7.51222E+07 1.99120E+07
 -1       157-1.66411E+08-1.07014E+08-4.45991E+08 8.76779E+05 1.34949E+07 2.31503E+07
 -1       158-6.80573E+07-6.59347E+07-1.62600E+08-1.92801E+06 9.12820E+07 2.12661E+07
 -1       159 1.91265E+05 5.05610E+04 1.63296E+04 5.15946E+04 7.68041E+04 2.14695E+05
 -1       160-1.58296E+05 8.12535E+03 2.11563E+04-1.36722E+05 3.06804E+04-1.14530E+05
 -1       161-1.20049E+06 2.45594E+05-4.78577E+05-4.61683E+05 4.15788E+04-9.21301E+05
 -1       162-2.10917E+06 2.19073E+05 1.47691E+04-7.27458E+05 1.91259E+05-1.52526E+06
 -1       163-1.58624E+06 1.08106E+05 1.90170E+05-3.53056E+05 3.88850E+03-8.15024E+05
 -1       164 1.26331E+05 6.31471E+04 1.53629E+04 3.55413E+04 2.90446E+04 9.64010E+04
 -1       165 4.97089E+04 2.43223E+04 4.79878E+04-2.85819E+03 1.83209E+04 8.53882E+04
 -1       166-7.23185E+05 9.45402E+04 3.14399E+03-2.93002E+05 1.24193E+05-3.84540E+05
 -1       167-1.78344E+06 1.89973E+05-6.34528E+04-4.79404E+05-1.19174E+05-1.05952E+06
 -1       168-1.65261E+06 3.50492E+03 3.68215E+05-6.81834E+05 9.65967E+04-1.08254E+06
 -1       169-7.94305E+05 1.60333E+05 2.88901E+05-1.14419E+05-6.34988E+04-5.30260E+05
 -1       170-5.62973E+05-4.06649E+04 4.65745E+07-1.72633E+04-3.07226E+06-5.74209E+06
 -1       171-4.97977E+04 1.48373E+06 3.32954E+07-5.32706E+05-2.56364E+06-5.41983E+06
 -1       172 4.25380E+07-1.07385E+05 7.03372E+08 1.97325E+06-9.96269E+06 1.82912E+07
 -1       173 5.79406E+07-6.17354E+05 6.87448E+08-1.12154E+06-1.08483E+07 1.37910E+07
 -1       174 2.99203E+07-2.89462E+05 6.56490E+08 3.29899E+05-1.03319E+07 1.32204E+07
 -1       175 3.38417E+07-6.03185E+05 5.94944E+08-1.07935E+06-9.76600E+06 1.46648E+07
 -1       176-8.71002E+05 1.78585E+05 2.22533E+07-5.92044E+04-1.66495E+06-2.29734E+06
 -1       177-9.47387E+05-4.44022E+05 1.70515E+07 3.79175E+04-1.12042E+06-3.73626E+05
 -1       178-7.59836E+05-3.04099E+04 1.23276E+07-1.73347E+04-1.34902E+06-2.40655E+06
 -1       179-9.38626E+05 2.50598E+05 3.49456E+07-9.99773E+04-1.92334E+06-1.59929E+06
 -1       180-1.10101E+06 4.09998E+05 2.65405E+07 4.60881E+04-1.68723E+06 2.50602E+06
 -1       181-1.35255E+06 2.29638E+05 6.86652E+07-9.04488E+04-3.19433E+06 7.25086E+06
 -1       182-1.92047E+05-1.48091E+05 4.78423E+07 9.42770E+04-3.01601E+06 1.21671E+07
 -1       183-5.07741E+05 2.29823E+05 3.67427E+07-2.85025E+05-2.67356E+06 9.53723E+06
 -1       184 5.55685E+07 9.65464E+05 5.85340E+08-3.30280E+06-9.17185E+06 4.67113E+06
 -1       185 1.13598E+08 6.10710E+05 7.13893E+08-7.04814E+06-1.29777E+07-7.98197E+06
 -1       186-8.30584E+05-2.28458E+05 1.16638E+08-2.20753E+05-4.01590E+06 1.00492E+07
 -1       187 4.53679E+04-1.14744E+06 8.23366E+07 1.36282E+05-3.47249E+06 1.68671E+07
 -1       188-6.12386E+05 9.15924E+04 8.05399E+07-8.63367E+04-2.89399E+06 1.19215E+07
 -1       189 8.41121E+07 6.52780E+05 7.71501E+08 2.85678E+06-1.36989E+07 2.27798E+07
 -1       190-2.66807E+05 3.11168E+05 2.21049E+08-2.87304E+05-4.96027E+06 2.06894E+07
 -1       191 2.36574E+05-1.63306E+06 2.88602E+08-2.13815E+04-5.88718E+06 2.08965E+07
 -1       192-1.22187E+04 2.02298E+06 1.93081E+08-4.29649E+05-5.50921E+06 2.68631E+07
 -1       193-9.47172E+05 8.66647E+04 2.72849E+08 4.01153E+05-5.73668E+06 1.24442E+07
 -1       194-6.00930E+05 2.15835E+05 2.22178E+08-5.44224E+05-5.84814E+06 1.35027E+07
 -1       195-3.48062E+05-8.89703E+05 1.60303E+08-1.08942E+05-5.09379E+06 2.38581E+07
 -1       196-4.39526E+05-9.64797E+05 1.69648E+08 2.78418E+05-4.70472E+06 1.74059E+07
 -1       197-3.34492E+05 6.16925E+05 1.21515E+08-3.18298E+05-3.79904E+06 1.58189E+07
 -1       198-1.34959E+05-1.01379E+06 1.11079E+08-5.51835E+04-4.33735E+06 2.08576E+07
 -1       199-1.22964E+06 7.54748E+04 1.54452E+08 1.78193E+05-4.21906E+06 9.49081E+06
 -1       200 3.99607E+07 1.43408E+06 4.21341E+08-3.46952E+06-4.26397E+06-3.00958E+06
 -1       201 1.51064E+07 3.56005E+05 2.65662E+08-2.77779E+06-4.76291E+06 1.56842E+07
 -1       202 2.79843E+07 1.27614E+06 4.62900E+08-1.95731E+06-7.72065E+06 1.34041E+07
 -1       203 1.78033E+06-2.06792E+05 3.60102E+08-1.85900E+05-6.54390E+06 1.56195E+07
 -1       204 5.61617E+05 8.61212E+05 2.60393E+08 2.10805E+05-5.39902E+06 2.79516E+07
 -1       205 2.40611E+07-2.20708E+06 1.76618E+08-1.09503E+06-8.89445E+05-4.26030E+06
 -1       206 3.55797E+06-4.95893E+05 4.15812E+08-3.89679E+05-7.42424E+06 1.82354E+07
 -1       207 3.45217E+06-2.82727E+06 3.31251E+08-7.02697E+05-7.44508E+06 2.72570E+07
 -1       208 1.72421E+06 4.74763E+05 3.39912E+08-2.92211E+05-6.13547E+06 2.56499E+07
 -1       209 1.19438E+07 5.29693E+05 5.06937E+08-3.39611E+05-7.28940E+06 1.76906E+07
 -1       210 9.83357E+06 8.06129E+05 3.90671E+08-9.83646E+05-7.82357E+06 2.50923E+07
 -1       211 6.73192E+06-6.34743E+05 4.18583E+08 2.87971E+05-5.13940E+06 2.32955E+07
 -1       212 2.94016E+05-6.16412E+05 1.94695E+07 2.27670E+04-1.74729E+06 1.00027E+07
 -1       213 4.75692E+05-5.31520E+04 2.72966E+07 2.38788E+05-2.09905E+06 1.22482E+07
 -1       214 1.94291E+07 6.44045E+05 4.97852E+08-1.12469E+06-9.18971E+06 1.95992E+07
 -1       215-5.77674E+05-2.20762E+05 1.47110E+07-2.54830E+05-1.38222E+06-3.53372E+06
 -1       216-7.80611E+05-1.18114E+05 2.33235E+07-1.22703E+05-1.87685E+06-4.14217E+06
 -1       217 5.85633E+07-3.53564E+06 3.24115E+08-6.42063E+06 3.67503E+06-3.49734E+07
 -1       218 7.68718E+07-2.39944E+06 5.27925E+08-7.63140E+06-3.34712E+06-2.28532E+07
 -1       219 2.18232E+05-1.12722E+05 5.03264E+07-6.13751E+04-2.31840E+06 1.54340E+07
 -1       220-1.15231E+06 8.59132E+05 3.11704E+07-2.78884E+05-2.33631E+06 1.57575E+07
 -1       221-2.99021E+05-3.56794E+05 1.72984E+07-2.19165E+04-1.72997E+06 1.19418E+07
 -1       222-2.43224E+05 2.83815E+05 7.70261E+07-2.68350E+05-2.93522E+06 1.93706E+07
 -1       223-1.29146E+06 6.29840E+05 4.58691E+07-2.96974E+05-2.69581E+06 1.83596E+07
 -1       224 2.96644E+05 4.33050E+05 1.09602E+08-2.73075E+05-3.38399E+06 2.27203E+07
 -1       225 4.77260E+03-2.39804E+05 2.33557E+07-4.59615E+05-2.50726E+06 1.26840E+07
 -1       226-8.65808E+05 1.07129E+06 6.53869E+07-5.07271E+05-3.48426E+06 2.11029E+07
 -1       227 2.56995E+05 3.32286E+05 1.45874E+08-3.23447E+05-4.22964E+06 2.56435E+07
 -1       228-7.87602E+05 2.25975E+05 1.35507E+07-6.99617E+04-1.16309E+06 4.78980E+06
 -1       229-9.27443E+05-2.16072E+05 1.42665E+07-2.22827E+05-1.12675E+06 2.23223E+06
 -1       230 1.00386E+06-2.35571E+06 3.44296E+08-4.17091E+06-7.20721E+06-6.67677E+06
 -1       231 1.29404E+06 3.87950E+06 3.88260E+08-1.73150E+06-6.40010E+06-1.28650E+07
 -1       232-9.78916E+05-3.24121E+04 4.45522E+07 4.82383E+04-1.85170E+06 5.20175E+06
 -1       233-5.94822E+05-4.34952E+04 2.36047E+07-1.59207E+05-2.06407E+06 6.96462E+06
 -1       234-8.16644E+05 2.75441E+05 4.88906E+07-6.92369E+04-2.07775E+06-3.37082E+06
 -1       235-7.87328E+05-5.28445E+05 3.13013E+07 3.73495E+04-2.30692E+06-4.90955E+06
 -1       236 6.27848E+05-7.93862E+04 8.85557E+07-8.96810E+04-5.37524E+06 2.25847E+07
 -1       237 8.24469E+05 1.88427E+05 1.89182E+08-2.87931E+05-4.51885E+06 2.73076E+07
 -1       238-1.86030E+05 7.69665E+04 5.48255E+06-2.53578E+04-7.69543E+05 5.15328E+06
 -1       239 2.00384E+05 3.69587E+05 1.07384E+06-7.31787E+04-1.04323E+06 5.71375E+06
 -1       240-4.78636E+04-7.15417E+05 9.92078E+05-1.91701E+05-8.34856E+05 4.30527E+06
 -1       241-3.30535E+05 2.23296E+05-2.57665E+06 5.57013E+04-4.30402E+05 2.33819E+06
 -1       242 8.75610E+05-1.10159E+06 1.14664E+08 6.14342E+05-5.58240E+06 2.55122E+07
 -1       243 2.14136E+06 3.19329E+06 2.34556E+08-2.46307E+05-4.21909E+06 2.79750E+07
 -1       244 1.41076E+06 1.13678E+06 1.42595E+08 2.53213E+05-6.42061E+06 2.53670E+07
 -1       245 5.39131E+06 1.67651E+06 2.89621E+08 2.46941E+05-7.66347E+06 2.89904E+07
 -1       246 5.48586E+06-1.52675E+06 1.79421E+08-1.19375E+05-6.99343E+06 2.19558E+07
 -1       247 1.49665E+07-2.34193E+04 3.54766E+08 1.70319E+05-4.98951E+06 2.17823E+07
 -1       248-1.60633E+05 2.72255E+05 8.97725E+06 4.14765E+04-1.93366E+06 8.95092E+06
 -1       249 1.31312E+05-1.23263E+04 3.52090E+06-1.89872E+05-1.56220E+06 6.66935E+06
 -1       250-2.39848E+05-7.17136E+04 1.44337E+06 1.12446E+05-5.33523E+05 3.03733E+06
 -1       251-1.09202E+06-6.04690E+02 2.24382E+06 2.32943E+04-3.94043E+05 1.13131E+06
 -1       252-8.54294E+05 1.46236E+05 6.10494E+06-1.39729E+04-9.92657E+05 2.77971E+06
 -1       253 1.60591E+08-2.62483E+07 8.55375E+08 1.83751E+07-1.40229E+07 4.71001E+07
 -1       254 1.19067E+08-3.65705E+06 6.75683E+08 4.72002E+07 5.26548E+06 8.71661E+07
 -1       255-5.88433E+05 2.79960E+04 3.88666E+05-6.95238E+04-3.51640E+05-7.12610E+05
 -1       256-1.01932E+06 4.95840E+03 3.06459E+06-2.02282E+04-5.55200E+05-3.45239E+05
 -1       257 1.08692E+05-1.47054E+05 1.11698E+07-6.67567E+04-1.35003E+06 7.41507E+06
 -1       258-1.17345E+06 1.35859E+05 8.60732E+06-5.52434E+04-8.23075E+05 7.34122E+05
 -1       259-8.80824E+05 6.71700E+03 8.37196E+06-5.10609E+04-8.89026E+05-7.19370E+05
 -1       260-5.85035E+05-1.40230E+05 4.75397E+06-5.62854E+04-8.20201E+05-1.73078E+06
 -1       261-4.88114E+05-1.02214E+05 1.70364E+06-5.49296E+04-5.65855E+05-1.21868E+06
 -1       262-1.69609E+05 1.29541E+06 2.74655E+08-4.05526E+05-8.54514E+06-1.50437E+07
 -1       263 1.59983E+06 1.77042E+06 3.86972E+08 1.54903E+06-5.79603E+06-8.96484E+06
 -1       264 2.76954E+06 2.18676E+05 4.06762E+08 5.62967E+05-5.83684E+06-9.24821E+06
 -1       265 5.42549E+06-7.70041E+04 4.98676E+08 5.92794E+04-7.45408E+06-8.05017E+05
 -1       266-5.99865E+05 4.61410E+05 4.85349E+07-4.10673E+05-1.71045E+06-6.06483E+06
 -1       267-1.13394E+06 4.93345E+05 7.77274E+07 4.17550E+04-3.29424E+06-7.55712E+06
 -1       268-5.22189E+05 1.88297E+05 7.29111E+07 1.73591E+05-2.78904E+06-5.39178E+06
 -1       269-5.81611E+05-1.60114E+05 9.96968E+07-1.09056E+05-3.64581E+06-2.13221E+06
 -1       270 8.39596E+05-2.11755E+05 1.08461E+08-6.32629E+05-3.67540E+06-8.43633E+06
 -1       271-1.43850E+06 7.83239E+05 1.54471E+08 9.83741E+04-4.51241E+06-1.05671E+07
 -1       272-4.19789E+05 6.69341E+05 1.52933E+08 1.69903E+05-4.16767E+06-7.57090E+06
 -1       273-7.43434E+05-8.52022E+04 2.00595E+08 2.34016E+05-5.07242E+06-3.64635E+06
 -1       274 1.24645E+06-1.86127E+05 1.86624E+08-1.05886E+06-4.62711E+06-1.07946E+07
 -1       275-7.89647E+05 3.52853E+05 2.52613E+08-4.40066E+05-6.90507E+06-1.31047E+07
 -1       276 1.55990E+05 6.52944E+05 2.63728E+08 5.01114E+05-5.96745E+06-1.00458E+07
 -1       277 4.24213E+05-2.07705E+05 3.33112E+08-4.03905E+05-5.61459E+06-2.97794E+06
 -1       278 5.64908E+07 3.05777E+06 7.31384E+08 9.22442E+06-3.17283E+06 4.22260E+07
 -1       279 3.98049E+07 4.97156E+06 5.83451E+08 8.64001E+06 2.61962E+06 4.71134E+07
 -1       280 9.18347E+07 2.83972E+06 7.18302E+08 1.45238E+07-1.92992E+06 6.18895E+07
 -1       281 3.46191E+07 4.06055E+06 5.42227E+08 7.34444E+06 7.19710E+06 7.35029E+07
 -1       282 1.12847E+08 3.13117E+06 8.19187E+08 7.15387E+06-1.44719E+07 3.91341E+07
 -1       283 1.16643E+07 1.14037E+07 2.65640E+08 3.35844E+06-1.83249E+07-1.04892E+07
 -1       284-4.38967E+05 2.56067E+05 5.41101E+06-6.24902E+03-1.21363E+06-2.22692E+06
 -1       285 2.47734E+07 2.81497E+06 5.43868E+08 2.77751E+06-4.06974E+06 2.67542E+07
 -1       286-8.82004E+05 2.89093E+05 1.02337E+08-4.36995E+05-3.80131E+06-1.01362E+07
 -1       287 4.00164E+05 1.24046E+05 7.85638E+07-6.37736E+05-3.66344E+06-8.34062E+06
 -1       288-1.32701E+06 3.75092E+05 1.84104E+08-7.39563E+05-5.12588E+06-1.36965E+07
 -1       289 1.16792E+06 2.12544E+05 1.48525E+08-1.08679E+06-4.91059E+06-1.13231E+07
 -1       290-3.51729E+06 4.17809E+05 2.88094E+08-1.21627E+06-6.81844E+06-1.38115E+07
 -1       291 3.60214E+06 2.86968E+06 2.38339E+08-7.97976E+05-4.98618E+06-1.38694E+07
 -1       292 1.93466E+07 9.63344E+04 6.10946E+08 1.78065E+06-7.02167E+06 1.04987E+07
 -1       293 6.94450E+06 8.48472E+05 4.96374E+08 2.05059E+06-4.00124E+06-1.10719E+06
 -1       294 3.66265E+06-3.26316E+05 3.82571E+08-8.27132E+05-3.30802E+06-4.51695E+05
 -1       295 1.59788E+07 1.55433E+05 6.02585E+08 1.26262E+06-8.57502E+06 5.20434E+06
 -1       296-8.63939E+05-1.51365E+05 6.57491E+07 1.72461E+05-2.54846E+06-3.68799E+06
 -1       297-9.17922E+05 4.00800E+05 1.14831E+08-8.96833E+04-3.52183E+06-6.05641E+06
 -1       298 9.94507E+07 2.05836E+07 3.02630E+08-2.86314E+07 8.33582E+06-3.69212E+07
 -1       299-8.68562E+05-3.55316E+05 1.45450E+08 3.79034E+05-4.04957E+06-5.29655E+06
 -1       300-1.24601E+02 1.90846E+05-1.42470E+06-1.16327E+05-3.09770E+05 2.64964E+06
 -1       301-8.76296E+05 7.21396E+05 2.14804E+08-7.37919E+04-4.78476E+06-8.22939E+06
 -1       302-4.60181E+05-6.19584E+05 2.59484E+08 7.24810E+05-5.45449E+06-6.85771E+06
 -1       303 8.62125E+04 9.04980E+05 3.46497E+08 5.03620E+05-6.13518E+06-9.23056E+06
 -1       304-1.07042E+06-2.27750E+05 4.69009E+07-9.79113E+04-2.15753E+06 8.12082E+05
 -1       305 1.49074E+06-5.31735E+05 4.05809E+08 9.95078E+05-7.51185E+06-6.03534E+06
 -1       306 3.95740E+07-4.49917E+05 6.80673E+08 5.56899E+06-6.92302E+06 2.19185E+07
 -1       307-1.24236E+06 5.38902E+03 8.32013E+07 8.17527E+04-2.93804E+06 8.40592E+05
 -1       308-1.13164E+06-7.06468E+04 6.36509E+07-2.55380E+05-2.77038E+06 1.64935E+06
 -1       309 1.16424E+08-1.37044E+06 5.43468E+08-1.35806E+07-6.38812E+06-4.98531E+07
 -1       310 1.76269E+08-1.75311E+07 7.24493E+08-2.20903E+07-5.46691E+06-3.34932E+07
 -1       311 7.84644E+06-1.13092E+06 5.44094E+08 1.48805E+06-7.87054E+06-8.13847E+05
 -1       312 1.95502E+08-1.85878E+07 9.28814E+08 1.05357E+06-3.02172E+07 2.02682E+07
 -1       313-1.03952E+06-2.50610E+04 1.22028E+08-1.03838E+05-3.41956E+06 1.71032E+06
 -1       314-1.15478E+06 2.94241E+05 9.81301E+07-1.05471E+05-3.41821E+06 5.58886E+06
 -1       315-1.11770E+06-4.44996E+04 1.74160E+08 9.33183E+04-3.87543E+06 1.43438E+05
 -1       316-1.19301E+06-3.08721E+05 1.47007E+08-2.49595E+05-3.48425E+06 1.58562E+06
 -1       317-7.47757E+05-1.32229E+05 2.32158E+08 3.96174E+04-4.77931E+06 2.42251E+06
 -1       318-8.54042E+05-3.68743E+05 1.97665E+08 1.09656E+05-5.10137E+06 7.08006E+06
 -1       319 1.98583E+08-5.16264E+06 8.62938E+08-1.53355E+07-2.55742E+07-8.35886E+06
 -1       320-7.52735E+05 9.38871E+04 3.01629E+08 2.23345E+05-5.47086E+06-8.87010E+04
 -1       321-9.71790E+05-4.82061E+05 2.65907E+08-3.09860E+05-4.71266E+06 2.12886E+06
 -1       322 5.26416E+05-1.86765E+05 3.79258E+08 1.98819E+05-5.95732E+06 2.88631E+06
 -1       323-3.69277E+05-1.37873E+05 3.33934E+08 1.47117E+05-5.56897E+06 9.70398E+06
 -1       324-5.58978E+05-1.04685E+04 7.76510E+06-1.69499E+05-1.28928E+06-2.71244E+06
 -1       325 2.73758E+06 8.35303E+05 4.65171E+08 3.61119E+05-7.60969E+06 2.42021E+06
 -1       326 1.81136E+06-1.28112E+05 4.18012E+08-1.97274E+05-6.41269E+06 4.74946E+06
 -1       327 1.03619E+07 6.54046E+05 4.89807E+08 1.59699E+05-2.42894E+06 1.05563E+07
 -1       328 1.06615E+07-1.08320E+05 5.50066E+08 5.40641E+05-6.42676E+06 8.66694E+06
 -1       329 6.56922E+06-8.94053E+04 4.94397E+08 3.01602E+04-7.60678E+06 1.31111E+07
 -1       330 1.80056E+07-9.75160E+05 5.90921E+08-1.38746E+05-8.28856E+06 1.30153E+07
 -1       331 1.42867E+08-1.13761E+05 8.23156E+08-1.38096E+06-2.03709E+07 1.45976E+07
 -1       332 1.32766E+08 1.33187E+08 2.13144E+08 1.65169E+07 6.89359E+07 6.91436E+07
 -1       333-1.23853E+05-3.11310E+03-5.25655E+04-3.09066E+04-1.99308E+05-2.18466E+05
 -1       334 7.35751E+05 2.49565E+05-7.35902E+05-2.53480E+05-1.28679E+05 1.62327E+06
 -1       335-1.71735E+05-7.01212E+04-1.26949E+06-8.49749E+04-1.40861E+05 1.26135E+06
 -1       336-1.64274E+05-2.98836E+05-1.65408E+06 2.92878E+04-5.44544E+05 1.67783E+06
 -1       337 4.41427E+07 4.60867E+06 8.48724E+07-1.76920E+07 9.40802E+06-3.49486E+07
 -1       338 1.21966E+07-2.24776E+07 4.74275E+07-8.98968E+06 1.80893E+07-1.26508E+07
 -1       339 1.08494E+08 8.09890E+07 2.69475E+08-2.03068E+07 1.10580E+07-1.98175E+07
 -1       340 5.78561E+07 4.58733E+07 2.65968E+08 1.17183E+06 2.67543E+07 4.68973E+07
 -1       341 2.10936E+07 1.66843E+07 1.47701E+08-5.41993E+06 2.56138E+07 3.46019E+07
 -1       342 5.06702E+07 3.84897E+07 2.63116E+08 1.81961E+07 3.04464E+07 6.22319E+07
 -1       343 1.23268E+08 7.46464E+07 5.59121E+08 3.30679E+07 1.26294E+07 8.38150E+07
 -1       344 8.45380E+07 2.45565E+06 6.15892E+08 2.41835E+07 7.93812E+06 1.03366E+08
 -1       345 6.30414E+07 2.28694E+07 2.64213E+08 6.69553E+06 1.87186E+07 3.25606E+07
 -1       346 2.08509E+07 2.16913E+07 2.58161E+08 7.93680E+06 1.77255E+07 1.87965E+07
 -1       347 2.57059E+06-1.59632E+07 4.76971E+08 3.40318E+06 5.77162E+06 6.45273E+07
 -1       348 3.93904E+07 3.08853E+07 3.12475E+08 1.08727E+07-4.72165E+06 1.57076E+07
 -1       349 2.07162E+07 3.63802E+07 2.37232E+08-2.55172E+05 2.12688E+06 1.01497E+07
 -1       350-1.44173E+07-2.46511E+07 4.85305E+08 8.97912E+06-3.64790E+06 4.28687E+07
 -1       351 4.17050E+07 2.45122E+07 2.85257E+08 1.20065E+07-8.41342E+06 1.27446E+07
 -1       352 1.17352E+07 2.40047E+07 1.81733E+08-4.22434E+06 9.72433E+05-1.61567E+06
 -1       353-4.88486E+06-2.02974E+07 4.65018E+08 1.01498E+06-5.25268E+06 2.31423E+07
 -1       354 3.16781E+07 3.07864E+07 2.00454E+08 7.74035E+06-1.12979E+07-2.56018E+06
 -1       355 3.10334E+07 2.40245E+07 2.07700E+08 9.45341E+06-5.43930E+06 6.29406E+06
 -1       356-1.07617E+07-1.18672E+07 3.94182E+08-5.23100E+05-5.70010E+06 5.09953E+06
 -1       357 2.95138E+07 2.86962E+07 1.68546E+08 3.37851E+06 8.94425E+06-8.24744E+06
 -1       358 8.66068E+06 1.76675E+07 8.64951E+07-1.10816E+07-1.10722E+07-1.65507E+06
 -1       359-1.00274E+07-1.52494E+07 3.18493E+08-4.02245E+06-3.38795E+06-6.80389E+06
 -1       360 1.63114E+07 8.11683E+06 1.88927E+08 8.40088E+05 2.87258E+06-8.70396E+06
 -1       361 4.96828E+06 1.75279E+07 1.34683E+08-3.40254E+06-3.62241E+06-5.34032E+06
 -1       362-1.72583E+07-1.34878E+07 3.22319E+08-2.04945E+06-8.96067E+06-2.00877E+07
 -1       363 2.62663E+07 2.68160E+07 1.17145E+08 3.60164E+06-7.49586E+06-7.97509E+06
 -1       364-3.54692E+06 4.41421E+06 6.49044E+07-1.91995E+06-1.40922E+07 5.64624E+05
 -1       365 2.72517E+06-2.21272E+06 1.79529E+08 6.96280E+05-1.50493E+07-8.45344E+05
 -1       366-1.15422E+07-6.20529E+06 3.67782E+08 4.23389E+06-8.68176E+06-1.53193E+07
 -1       367 9.54412E+06 4.97368E+06 3.23177E+08 4.46234E+06-1.23442E+07-8.30483E+06
 -1       368 2.30754E+07 1.84512E+07 1.42813E+08 4.10374E+06-3.62875E+05-1.42581E+07
 -1       369 4.02054E+06 1.46549E+07 8.52132E+07-3.34947E+06-6.58027E+06-6.82221E+06
 -1       370-1.43127E+07-1.47363E+07 2.24979E+08-1.84077E+06-1.14574E+07-1.79750E+07
 -1       371 1.74457E+07 1.82613E+07 1.40101E+08 3.40998E+05-3.05440E+06-8.22636E+06
 -1       372 1.57511E+06 1.33872E+07 1.00717E+08-2.60445E+06-8.76620E+06-7.86346E+06
 -1       373-1.37118E+07-9.13540E+06 2.50051E+08-1.41054E+06-8.91390E+06-2.14301E+07
 -1       374 2.02024E+07 1.33946E+07 1.22734E+08 2.84427E+06-4.24110E+05-5.32039E+06
 -1       375 5.60522E+06 1.38488E+07 7.59860E+07-3.20520E+06-8.32975E+06-3.03995E+05
 -1       376-1.64583E+07-1.10227E+07 2.23155E+08-4.17635E+05-6.76172E+06-1.92641E+07
 -1       377 2.27987E+06 1.23088E+07 1.02662E+08-2.09941E+05-8.52528E+06-6.26105E+06
 -1       378 1.63173E+07 1.55066E+07 1.34256E+08 3.11752E+06-4.75110E+06-1.05637E+07
 -1       379-1.07994E+07-8.57274E+06 2.18640E+08-2.77356E+05-6.84266E+06-1.91948E+07
 -1       380 1.53234E+07 1.23033E+07 9.15343E+07 5.15937E+05-3.24168E+06-5.25032E+06
 -1       381 2.28941E+06 8.54219E+06 5.58382E+07-2.42002E+06-9.45349E+06-5.34131E+06
 -1       382-1.28149E+07-1.08434E+07 1.86608E+08-5.70334E+05-4.53994E+06-1.53401E+07
 -1       383 1.30083E+07 1.05780E+07 9.27210E+07 1.24960E+06-3.63042E+06-7.95621E+06
 -1       384 2.60874E+06 9.34855E+06 6.35694E+07-2.03035E+06-7.66143E+06-5.10265E+06
 -1       385-9.65885E+06-8.84052E+06 1.60090E+08-4.51816E+05-6.99735E+06-1.65513E+07
 -1       386 1.22151E+07 9.75096E+06 7.34626E+07 5.21716E+05-3.45733E+06-4.57306E+06
 -1       387 1.35831E+06 6.77436E+06 4.47243E+07-2.08410E+06-7.73477E+06-3.13213E+06
 -1       388-8.97798E+06-8.36568E+06 1.38304E+08-5.39786E+05-4.49987E+06-1.42629E+07
 -1       389 1.90201E+06 8.40600E+06 5.88306E+07-9.01412E+05-6.62257E+06-4.86438E+06
 -1       390 9.67899E+06 9.22385E+06 7.96320E+07 1.35153E+06-3.71524E+06-7.37710E+06
 -1       391-7.32852E+06-6.67042E+06 1.33660E+08-2.99147E+05-5.55331E+06-1.47761E+07
 -1       392 8.87164E+06 6.93498E+06 5.30705E+07 2.40645E+05-3.07866E+06-3.90701E+06
 -1       393 1.05569E+06 4.90115E+06 3.21535E+07-1.38199E+06-6.68517E+06-3.21212E+06
 -1       394-7.36401E+06-6.25449E+06 1.10095E+08-1.22781E+05-3.42960E+06-1.11225E+07
 -1       395 6.90796E+06 5.55031E+06 5.07656E+07 5.30240E+05-3.20799E+06-5.87283E+06
 -1       396 1.23302E+06 5.24741E+06 3.50303E+07-1.16510E+06-5.52147E+06-3.95539E+06
 -1       397-5.45823E+06-5.21467E+06 9.05303E+07-1.77046E+05-4.95837E+06-1.16904E+07
 -1       398 6.10453E+06 4.95135E+06 3.81131E+07 1.59222E+05-2.96659E+06-3.63496E+06
 -1       399 4.77589E+05 3.59979E+06 2.30168E+07-1.08830E+06-5.32503E+06-2.65309E+06
 -1       400-4.95865E+06-4.59551E+06 7.48666E+07-2.13476E+05-3.45855E+06-1.00836E+07
 -1       401 6.12994E+05 4.26724E+06 2.91082E+07-4.30351E+05-4.46275E+06-3.76058E+06
 -1       402 4.38854E+06 4.49776E+06 3.89373E+07 5.59641E+05-3.01155E+06-5.05534E+06
 -1       403-3.91927E+06-3.52879E+06 6.87605E+07-1.35969E+05-3.75865E+06-1.00104E+07
 -1       404-3.68682E+05 3.68876E+05 1.53609E+07-4.25560E+05-2.23772E+06-2.41861E+06
 -1       405 4.41841E+05 2.91030E+06 1.43692E+07-5.33284E+05-3.88582E+06-2.23509E+06
 -1       406-3.80777E+06-2.97763E+06 5.40334E+07 1.08721E+04-2.37443E+06-7.56340E+06
 -1       407 1.52523E+06 2.64661E+05 1.63188E+07 6.55753E+05-4.79438E+06-1.38419E+06
 -1       408 1.54764E+06 2.00069E+06 7.77445E+06-8.68010E+05-3.26548E+06-2.39430E+06
 -1       409 1.70526E+06-5.85971E+05 2.27987E+07 2.05390E+05-3.44247E+06-3.20983E+06
 -1       410-1.06212E+06-2.60103E+05 3.69950E+07-7.77578E+04-3.34348E+06-5.50598E+06
 -1       411-9.09055E+05-4.84139E+05 4.48266E+07 3.92106E+05-2.23025E+06-6.74997E+06
 -1       412-6.85504E+05 1.94103E+05 1.10263E+07-8.14819E+05-1.36387E+06-1.95888E+06
 -1       413 7.67025E+05 1.09243E+06 9.68443E+06-1.50424E+05-1.76497E+06-3.13209E+06
 -1       414 1.64765E+06 7.98131E+05 1.42142E+07 6.35154E+05-2.39790E+06-2.79521E+06
 -1       415-5.42899E+05 4.32531E+04 1.18982E+07-1.89616E+05-1.99262E+06-3.01721E+06
 -1       416-1.77786E+05 4.72118E+05 3.16150E+07 3.48894E+04-1.77347E+06-5.92735E+06
 -1       417-1.31494E+06-1.19652E+06 2.54855E+07-2.52640E+05-2.06543E+06-4.70240E+06
 -1       418 4.87270E+05 8.07547E+05 7.08336E+06 2.24735E+05-2.23811E+06-2.84442E+06
 -1       419 5.99974E+05 8.22878E+05 5.38915E+06-2.78732E+05-1.44211E+06-1.97961E+06
 -1       420-2.07283E+06-8.86590E+05 1.64284E+07 2.77265E+04-1.59981E+06-3.51155E+06
 -1       421 3.60872E+05 3.76183E+05 3.36926E+06-1.34759E+05-1.02563E+06-1.40820E+06
 -1       422 3.59360E+04 5.02986E+05 1.50372E+06-2.29558E+05-1.49542E+06-1.15519E+06
 -1       423-1.30589E+06-7.32679E+05 8.95764E+06-4.37934E+05-1.38814E+06-2.95036E+06
 -1       424 3.57599E+04 4.75451E+04 2.04357E+06-5.11316E+04-8.93057E+05-1.43846E+06
 -1       425-3.08701E+05 9.41216E+03 1.15267E+06-3.06580E+04-1.20533E+06-1.09687E+06
 -1       426-4.27115E+05 6.89708E+04 6.11270E+06-6.02477E+04-1.27998E+06-2.53691E+06
 -1       427-1.99910E+05-1.69055E+04 5.63702E+05-9.66193E+04-4.95231E+05-7.55938E+05
 -1       428-2.77247E+05-1.17924E+05 2.41994E+05-3.15159E+04-6.77664E+05-8.04900E+05
 -1       429-5.96565E+04 4.93727E+03 1.72924E+06-4.51877E+04-8.21541E+05-1.20365E+06
 -1       430-8.82960E+05-3.65243E+05 2.38932E+06-2.34995E+04-6.36563E+05-1.55126E+06
 -1       431-4.70176E+05 1.65665E+04 5.06790E+06 1.49116E+04-1.01832E+06-1.95445E+06
 -1       432-2.74092E+05 2.38262E+04 5.29889E+04-4.31652E+04-3.82710E+05-5.09969E+05
 -1       433-4.89926E+05-1.49797E+04 1.40800E+05-4.49067E+04-1.90388E+05-4.70594E+05
 -1       434-4.02448E+05 4.87995E+03 1.07780E+06-9.04600E+04-4.56980E+05-9.84620E+05
 -1       435-9.03178E+05 9.15621E+04 3.66200E+05-4.36031E+04-9.90080E+04-3.01873E+05
 -1       436-1.34231E+06-3.71635E+04 9.14772E+05-1.29701E+05-2.26416E+05 1.05299E+06
 -1       437-1.19145E+06 9.42502E+04 1.07912E+06 2.28923E+04-1.72656E+04 4.23094E+05
 -1       438-1.11193E+06-1.84322E+05 1.18701E+06-1.16705E+05-3.29122E+05-1.86758E+05
 -1       439-1.09717E+06 5.15150E+04 2.61200E+06 6.03803E+04-3.23731E+05 4.06212E+05
 -1       440-9.07729E+05-1.37217E+04 1.58936E+06-1.77791E+05-4.22499E+05-6.45519E+05
 -1       441-1.00201E+06 3.53424E+04 6.23429E+05-4.33156E+04-1.07399E+05 1.79787E+06
 -1       442-2.11036E+05-4.49196E+04 2.02102E+05 4.45600E+04-4.19158E+05 2.28260E+06
 -1       443-7.92482E+05 2.43097E+04 2.04961E+06 8.55726E+04-5.43212E+05 2.16757E+06
 -1       444 1.96934E+05 4.19548E+04-5.35408E+05-2.99641E+05-4.57817E+04 2.16912E+06
 -1       445 1.87446E+04 4.11429E+04-6.48414E+04 5.37763E+04-3.99159E+05 2.95972E+06
 -1       446 4.44288E+07 7.03312E+06 1.25719E+08-5.54837E+06-4.63882E+06-2.08429E+07
 -1       447 5.10653E+07 4.10305E+06 1.19620E+08 6.88210E+05 7.10065E+05-3.17974E+07
 -1       448 8.90601E+07 1.55328E+07 3.37037E+08-1.46588E+07 1.93260E+07-5.40505E+07
 -1       449 1.46819E+07-1.50805E+05 3.57501E+07 1.11811E+06 1.01206E+06 3.07753E+05
 -1       450 2.38884E+07 4.77343E+06 3.73647E+07-2.65053E+06-1.87171E+06-6.26144E+06
 -1       451 3.32796E+07-6.23620E+06 2.42335E+08-3.18518E+06 6.38418E+06-1.51034E+07
 -1       452 3.72804E+06 1.17043E+06 4.74007E+07 1.50686E+06-2.40147E+06 1.57583E+07
 -1       453 9.35815E+06 5.45471E+06 5.60464E+07-4.37996E+05-8.28774E+05 1.28419E+07
 -1       454 1.99417E+07 4.30550E+06 2.31879E+08-1.04441E+06-5.25800E+06 8.85128E+06
 -1       455 6.42765E+06 3.02705E+06 8.17774E+07-1.59666E+06-1.44699E+06 1.16204E+07
 -1       456 8.54149E+06 2.01101E+04 2.24661E+08-2.77813E+06-5.62489E+06 1.71933E+07
 -1       457 1.40932E+06-4.08600E+06 3.18307E+07 1.48939E+06-3.31643E+06 1.55459E+07
 -1       458 3.42827E+06-1.72153E+06 3.26150E+07-2.18122E+06-3.66823E+06 1.55354E+07
 -1       459 1.67652E+06 2.75904E+06 1.59376E+08-9.08976E+05-5.27058E+06 2.38720E+07
 -1       460 2.46195E+06 1.40268E+06 2.50472E+07 1.63872E+06 3.75521E+05 1.65196E+07
 -1       461 2.72083E+06 2.25955E+05 2.66416E+07-1.31304E+06-3.33456E+06 1.54498E+07
 -1       462-3.33153E+05-1.25443E+06 1.24265E+08-1.58026E+06-8.46712E+06 2.53651E+07
 -1       463 4.78912E+05-9.86724E+05 1.73236E+07 1.88612E+06-3.32725E+05 1.35552E+07
 -1       464 1.69052E+06-1.42098E+06 1.73760E+07-1.14733E+06-4.52786E+06 1.41586E+07
 -1       465 1.88463E+05-7.89296E+05 9.76720E+07-2.34166E+06-7.96246E+06 2.39764E+07
 -1       466-1.08872E+05-1.16439E+06 1.35366E+07 4.35057E+05-1.95763E+06 1.23799E+07
 -1       467 7.89244E+05-1.66024E+06 1.32745E+07-1.21077E+06-2.47224E+06 1.22870E+07
 -1       468-1.19431E+06 1.03848E+06 7.55691E+07 2.92111E+05-3.19481E+06 2.11745E+07
 -1       469-4.92564E+05-1.12071E+06 8.83621E+06 4.87292E+05-1.17364E+06 1.06652E+07
 -1       470-1.15818E+06-1.91056E+06 6.87653E+06-1.00957E+06-1.85978E+06 1.09635E+07
 -1       471-8.03473E+05 2.02912E+06 5.64268E+07-2.50266E+05-4.14693E+06 1.93010E+07
 -1       472-8.02012E+04-3.63322E+05 5.26177E+06 7.26289E+05-6.48059E+05 9.00848E+06
 -1       473-1.07253E+06-1.38402E+06 3.75727E+06-6.72956E+05-1.55829E+06 9.20671E+06
 -1       474-1.11038E+06 1.72162E+06 3.94445E+07-4.06235E+04-3.49232E+06 1.65075E+07
 -1       475 7.99772E+04-3.19562E+05 4.56812E+05 3.01813E+04-7.79111E+05 6.55894E+06
 -1       476-6.43269E+05-4.51004E+05-1.62920E+06-1.26272E+05-9.14703E+05 7.48417E+06
 -1       477-1.58785E+06 5.33087E+05 2.30659E+07-1.11306E+06-3.00847E+06 1.36972E+07
 -1       478-1.07250E+05-1.70575E+06 3.85762E+05 4.36894E+04-7.81069E+05 5.04213E+06
 -1       479-5.08493E+05-7.51196E+05-2.34791E+06-3.16074E+05-9.27940E+05 5.82977E+06
 -1       480 1.05769E+06 7.16416E+05 2.21711E+07 2.02546E+05-1.41193E+06 1.24139E+07
 -1       481-1.83792E+05-3.32584E+05 3.97627E+06 2.17294E+05-1.56196E+06 7.99957E+06
 -1       482-1.35810E+05 7.04588E+05 1.53762E+07-6.83893E+05-2.36600E+06 1.08162E+07
 -1       483-4.48781E+05-2.51401E+05-1.69276E+06 4.16190E+04-7.17596E+05 3.85902E+06
 -1       484-7.28732E+04 1.16668E+06-2.60369E+06-1.44319E+05-8.02518E+05 4.16230E+06
 -1       485-1.31310E+05-2.06926E+05 5.94699E+06-1.01660E+05-1.87577E+06 8.30545E+06
 -1       486-2.23452E+05-8.04485E+04-1.82434E+06 2.27722E+05-4.62748E+05 1.33861E+06
 -1       487-7.31145E+05 1.28501E+05-3.84797E+06-8.28348E+04-3.91326E+05 1.80726E+06
 -1       488-5.95076E+04 1.40842E+05-1.73378E+06-2.30720E+05-6.92406E+05 3.97083E+06
 -1       489-8.07644E+04 8.99304E+03-1.60335E+06-1.93713E+05-6.09441E+05 3.79790E+06
 -1       490 1.88962E+05-5.34878E+05 2.40888E+06-2.51326E+04-1.82534E+06 6.09859E+06
 -1       491 2.55978E+03 1.66168E+05-1.59001E+06 2.19878E+04-2.78959E+05 2.54088E+06
 -1       492 2.10219E+08 6.92313E+07 7.88834E+08 4.40797E+07-2.16741E+07 7.16034E+07
 -1       493 3.05138E+08 1.61437E+08 1.01196E+09-2.50330E+07-7.19832E+07 9.80587E+06
 -1       494 2.47028E+08 3.28737E+07 9.37960E+08 3.12423E+06-3.95055E+07 2.98548E+07
 -1       495 1.26894E+08-1.70201E+07 7.59604E+08 1.63217E+07 1.03387E+06 6.53788E+07
 -1       496 2.23955E+08 3.04742E+07 8.69429E+08 3.70135E+06-2.20911E+07 5.17607E+07
 -1       497 1.60614E+08-4.87136E+07 8.85289E+08 1.79142E+07-2.14037E+07 3.08705E+07
 -1       498 2.66851E+08 6.30274E+07 8.86320E+08-1.64918E+07-3.89972E+07-2.43978E+07
 -1       499 2.44444E+08 1.17363E+08 7.58851E+08-1.79930E+07-2.63113E+07-3.29886E+07
 -1       500 3.11830E+08 1.76657E+08 9.78095E+08-2.08364E+07-4.99006E+07-6.67927E+06
 -1       501 1.84347E+08-2.09849E+07 7.94823E+08-1.40959E+07-1.28416E+07-1.51412E+07
 -1       502 2.01034E+08 4.29856E+06 9.05179E+08-1.44308E+07-2.92276E+07 4.44861E+06
 -1       503 1.99527E+08 1.45084E+08 5.19378E+08-2.20133E+07-1.28391E+07-3.91143E+07
 -1       504 1.58901E+08 1.09474E+07 5.44685E+08-2.18187E+07 4.53659E+06-4.27122E+07
 -1       505-3.43679E+05 5.80859E+05 3.98881E+07 1.50284E+05-2.32189E+06-4.83706E+06
 -1       506 3.31025E+03 6.46979E+05 5.01094E+07-1.17959E+05-2.48193E+06-4.58140E+06
 -1       507-9.45816E+05 1.52868E+05 5.67005E+07 8.37988E+04-2.88268E+06-4.73826E+06
 -1       508-1.63411E+06-2.97421E+05 5.63374E+07 1.46747E+05-2.69167E+06-3.21053E+06
 -1       509-6.97227E+05-6.42375E+05 5.98678E+07 4.36243E+05-2.10146E+06-6.52227E+06
 -1       510-1.30584E+06-3.32731E+05 5.84170E+07 4.85139E+05-2.47274E+06-5.16113E+06
 -1       511-5.14639E+05 3.11799E+04 6.94712E+07-2.18414E+05-2.52752E+06-4.49103E+06
 -1       512-6.18014E+05-4.61299E+04 4.11041E+07-6.80583E+04-2.26533E+06-3.63012E+06
 -1       513 3.62973E+07 2.59086E+05 6.81355E+08 1.31014E+06-9.35926E+06 1.51026E+07
 -1       514 4.50443E+07 1.82387E+06 6.77609E+08-9.40174E+05-7.16684E+06 1.56033E+07
 -1       515 5.08108E+07 1.13147E+05 6.92499E+08 1.17207E+06-9.42452E+06 1.68640E+07
 -1       516 7.33087E+07 3.04603E+06 7.33242E+08 7.79889E+05-1.31974E+07 1.57965E+07
 -1       517 5.58628E+07-2.43222E+06 7.31498E+08 2.25843E+06-1.02813E+07 2.17168E+07
 -1       518 2.65009E+07 1.12405E+06 6.45097E+08 2.55096E+06-7.91772E+06 1.12505E+07
 -1       519 3.43618E+07 4.08451E+06 6.68509E+08 1.81403E+06-6.68391E+06 1.45928E+07
 -1       520 4.13147E+07-5.82629E+05 6.90985E+08 3.82128E+06-9.21375E+06 1.95887E+07
 -1       521 6.36817E+07 1.25150E+05 7.36697E+08 4.30646E+06-9.66996E+06 2.61715E+07
 -1       522 2.20309E+07-6.18044E+06 6.31419E+08 1.66884E+06-5.19333E+06 1.53550E+07
 -1       523 3.19749E+07-6.72196E+05 6.22009E+08 5.14628E+05-9.29199E+06 1.54543E+07
 -1       524 4.49575E+07-8.68496E+05 6.39863E+08-6.77557E+05-9.22125E+06 1.20638E+07
 -1       525 4.42059E+07 1.24320E+06 5.91904E+08-1.90040E+06-9.30320E+06 1.10778E+07
 -1       526 5.57987E+07 7.03397E+04 6.31002E+08-3.10771E+06-1.09563E+07 9.87308E+06
 -1       527 7.97357E+07 1.43246E+06 6.45389E+08-3.81044E+06-8.43354E+06-2.71115E+06
 -1       528 8.16110E+07-1.80993E+06 6.98717E+08-3.96372E+06-9.83159E+06 7.68676E+06
 -1       529 1.00368E+08 4.86138E+04 7.39462E+08-9.69345E+05-1.31559E+07 1.05485E+07
 -1       530 2.27130E+07-2.39807E+04 6.22185E+08-1.70127E+05-1.00707E+07 1.20089E+07
 -1       531 2.77758E+07 4.93036E+05 5.96777E+08-6.37551E+05-7.62435E+06 1.51458E+07
 -1       532 1.54908E+07-1.77256E+06 6.04818E+08 1.63978E+06-6.36848E+06 5.98943E+06
 -1       533 2.61776E+07 2.97655E+06 6.41215E+08-1.02245E+05-8.02197E+06 1.06380E+07
 -1       534 1.73448E+07 2.91741E+06 6.00102E+08 2.19019E+06-5.97681E+06 1.02269E+07
 -1       535 3.16713E+07-5.87563E+05 5.29840E+08-2.60151E+06-8.67205E+06 1.37699E+07
 -1       536 4.32451E+07 1.08942E+06 5.26882E+08-1.37885E+06-7.49386E+06 7.29063E+06
 -1       537 2.63800E+07 5.94643E+05 5.45653E+08-5.20726E+05-8.84651E+06 1.65164E+07
 -1       538 2.60045E+07 2.20604E+06 4.85561E+08-1.61500E+06-8.83003E+06 1.68586E+07
 -1       539 1.92976E+07-3.30336E+05 5.43199E+08-5.59856E+05-8.52402E+06 1.67879E+07
 -1       540-6.31435E+05 3.68603E+05 1.73842E+07 1.09780E+05-1.32348E+06-2.23199E+06
 -1       541-9.78553E+05-2.39565E+05 1.43496E+07-1.83092E+05-1.23560E+06-1.43764E+06
 -1       542-1.02636E+06-2.34941E+05 1.97413E+07 3.78375E+04-1.02503E+06-1.19169E+06
 -1       543-8.87142E+05 1.21205E+05 2.49452E+07-1.16667E+05-1.53334E+06-5.22777E+04
 -1       544-1.38592E+06-9.59761E+04 2.07564E+07-2.49154E+05-8.61415E+05 7.20535E+05
 -1       545-6.27298E+05-3.03469E+05 1.74568E+07-2.29920E+05-1.42795E+06-3.11808E+06
 -1       546-4.20722E+05 2.64615E+05 1.33975E+07-4.38913E+04-1.14884E+06-2.76803E+06
 -1       547-1.18191E+06-5.19469E+04 2.84433E+07-1.14788E+05-1.94881E+06-1.97568E+06
 -1       548-5.14630E+05 9.12836E+05 3.18698E+07 5.87100E+05-1.50343E+06 6.37224E+05
 -1       549-3.54951E+05 2.28736E+05 2.93282E+07-2.35672E+05-1.94350E+06-3.17534E+06
 -1       550-3.06952E+05 1.52212E+05 2.30098E+07 2.79920E+05-1.50412E+06-3.18271E+06
 -1       551-1.13467E+06-2.87775E+05 1.20021E+07 1.61793E+05-1.02980E+06-4.46250E+05
 -1       552-7.56701E+05 6.77696E+04 1.08323E+07-7.91249E+04-9.46427E+05-1.65532E+06
 -1       553-1.09938E+06-3.20308E+05 1.52028E+07 2.12999E+05-1.27811E+06 1.04088E+06
 -1       554-8.48976E+05 2.02583E+05 1.94013E+07 8.38239E+04-1.47008E+06 2.40934E+06
 -1       555-1.41457E+06-5.12124E+05 1.13633E+07 4.70983E+04-8.61672E+05 2.47044E+05
 -1       556-1.15630E+06-3.08954E+05 1.05967E+07-1.82033E+05-8.36769E+05 1.52567E+06
 -1       557-1.06812E+06 1.36063E+05 8.62031E+06-8.14829E+04-9.20392E+05-4.26942E+03
 -1       558-7.87865E+05-2.51050E+05 9.41684E+06 3.85462E+03-1.48944E+06-2.80581E+06
 -1       559-3.84837E+05 2.33619E+05 8.87083E+06-3.82563E+04-1.32728E+06-2.23660E+06
 -1       560-6.29280E+05 1.47998E+05 7.31424E+06 9.18987E+04-1.03839E+06-1.67235E+06
 -1       561-1.37927E+06-1.30050E+05 3.56117E+07-7.49162E+04-1.77677E+06 1.60912E+06
 -1       562-1.05762E+06-2.23270E+05 4.03793E+07-6.08860E+05-1.85676E+06-4.31025E+04
 -1       563-1.03390E+06 5.27852E+05 3.36058E+07 4.57272E+05-1.96621E+06-3.25604E+06
 -1       564-1.17767E+06-1.31111E+05 4.15108E+07-2.27086E+05-2.17083E+06-2.35413E+06
 -1       565-8.44480E+05-2.43738E+05 4.87266E+07 3.74708E+05-1.70561E+06-1.21967E+06
 -1       566-1.11599E+06-2.26801E+05 1.41125E+07-3.22570E+05-8.59398E+05 3.60632E+06
 -1       567-1.18539E+06 7.37958E+04 1.96713E+07 8.10943E+04-1.01337E+06 3.79495E+06
 -1       568-4.80611E+05 2.39097E+05 1.92566E+07-9.22981E+04-1.80571E+06 5.77358E+06
 -1       569-7.84478E+05 2.48888E+05 2.59045E+07-9.88778E+04-1.77303E+06 4.83952E+06
 -1       570-9.60096E+05-8.02756E+04 3.48013E+07 7.57518E+02-1.96381E+06 3.98496E+06
 -1       571-9.08218E+05-6.46979E+04 3.36091E+07-1.39577E+05-1.19431E+06 6.21076E+06
 -1       572-9.58260E+05-1.59988E+05 4.46429E+07-3.05736E+05-2.24165E+06 3.05571E+06
 -1       573-6.83798E+05 3.50867E+05 5.25306E+07-3.43480E+05-1.90563E+06 8.86397E+06
 -1       574 1.14165E+05 7.02592E+05 4.45572E+07-1.32355E+04-2.80287E+06 1.07445E+07
 -1       575-9.18524E+05 6.18299E+04 5.81643E+07 4.02257E+05-3.16692E+06 9.90128E+06
 -1       576-4.97214E+05 6.15822E+05 6.61686E+07-4.23074E+05-2.17579E+06 1.20980E+07
 -1       577 1.77634E+05 7.43100E+05 7.62710E+07-2.16524E+05-2.78436E+06 9.76935E+06
 -1       578-7.97488E+05 5.16567E+05 5.60407E+07 4.22464E+05-2.41783E+06 6.37455E+06
 -1       579-9.90841E+05-1.19200E+05 4.10482E+07-3.26339E+05-1.67139E+06 7.43321E+06
 -1       580-1.49073E+06 1.25042E+05 8.88569E+07 7.73942E+05-3.74717E+06 8.64798E+06
 -1       581-1.14676E+06 2.26892E+05 8.37440E+07-2.43414E+05-3.84332E+06 5.94215E+06
 -1       582-1.01155E+06 5.30834E+05 5.43263E+07 3.28528E+05-2.15807E+06 3.92748E+06
 -1       583-1.20323E+06-4.62562E+05 6.56637E+07-9.02115E+05-2.89967E+06 4.40929E+06
 -1       584-1.51722E+06-1.75331E+05 7.25655E+07-2.52091E+05-3.14890E+06 1.15535E+06
 -1       585-6.95413E+05 2.22426E+05 7.65479E+07 6.40106E+05-2.68649E+06 4.07952E+06
 -1       586-5.42116E+05 3.62338E+05 9.27990E+07-1.08607E+05-2.23091E+06 2.90878E+06
 -1       587-6.53905E+05 4.99182E+04 3.75034E+07-7.55049E+04-2.01207E+06 1.28475E+07
 -1       588-1.07860E+05-1.62605E+05 3.27797E+07-6.75182E+05-2.93029E+06 1.08131E+07
 -1       589 1.36786E+06 7.27175E+05 5.20381E+07-2.94863E+02-2.19794E+06 1.41526E+07
 -1       590-7.62812E+05-1.61953E+04 6.51999E+07 2.99211E+05-2.82223E+06 1.37542E+07
 -1       591 9.45659E+05-4.77006E+05 2.64044E+07-2.57887E+05-1.92511E+06 1.21525E+07
 -1       592 7.92919E+04 1.56841E+05 3.77658E+07-1.49787E+05-3.22985E+06 1.28394E+07
 -1       593-2.76711E+05 2.14270E+05 3.69282E+07-3.77173E+05-1.74060E+06 1.37838E+07
 -1       594-1.77284E+04-1.22410E+06 2.23245E+07-1.91203E+05-1.99156E+06 1.07609E+07
 -1       595-3.35872E+05 1.64862E+05 2.72029E+07 3.69851E+05-1.36112E+06 1.00169E+07
 -1       596-2.60938E+04 2.80481E+04 3.05565E+07 1.68070E+04-2.46845E+06 8.56665E+06
 -1       597-5.29074E+05-4.52768E+05 2.13712E+07-4.11555E+05-2.12391E+06 8.57514E+06
 -1       598 1.04442E+08 3.61917E+06 6.30131E+08-8.03656E+06-1.34194E+07-1.91005E+07
 -1       599 6.83454E+07-2.03230E+05 5.60437E+08-5.11450E+06-7.86884E+06-6.28834E+06
 -1       600 3.70939E+07 5.07704E+06 4.49577E+08-1.84193E+06-5.74615E+06 5.57904E+06
 -1       601 4.87548E+07 3.11106E+06 5.06001E+08-6.60141E+06-6.14914E+06-7.45710E+04
 -1       602 5.82899E+07 8.16380E+05 4.74453E+08-5.02248E+05-4.74770E+06-1.58724E+07
 -1       603 1.27721E+08 9.35222E+05 7.70642E+08-5.41186E+06-1.53307E+07 4.46279E+06
 -1       604 1.14217E+08 1.04718E+06 7.95176E+08-4.71216E+05-1.45569E+07 2.18365E+07
 -1       605 8.43111E+07-5.90391E+06 5.24254E+08-1.02718E+07-3.06759E+06-3.35177E+07
 -1       606 1.20298E+08 9.42485E+05 6.36829E+08-1.00613E+07-6.12300E+06-2.75560E+07
 -1       607 1.64322E+08 7.94732E+06 6.46576E+08-1.68083E+07-8.14159E+06-4.64438E+07
 -1       608 1.46448E+08 3.24730E+06 7.22584E+08-1.28076E+07-9.86326E+06-2.34467E+07
 -1       609 1.58227E+08 4.27371E+06 7.86119E+08-6.04112E+06-1.30030E+07-7.34063E+06
 -1       610 1.60148E+08-4.12082E+06 8.29730E+08-6.63917E+06-2.15027E+07 2.50038E+06
 -1       611-1.48065E+06-9.97087E+04 9.76454E+07-5.96959E+05-3.24139E+06 1.03837E+07
 -1       612 9.67746E+05 9.66182E+05 8.42364E+07 8.03352E+03-2.81492E+06 1.43148E+07
 -1       613-1.35698E+06-7.88142E+05 9.81556E+07 4.37231E+05-3.17235E+06 1.33839E+07
 -1       614-1.37687E+06-1.02570E+06 9.99816E+07 2.83530E+04-3.19153E+06 1.65670E+07
 -1       615 6.35445E+05 1.68891E+06 1.21320E+08-8.87621E+05-2.51786E+06 1.34069E+07
 -1       616 4.12518E+05 9.57104E+05 1.08731E+08-1.27533E+05-3.08783E+06 7.62273E+06
 -1       617-1.37579E+06-6.87687E+05 1.34409E+08-2.96290E+05-4.67746E+06 9.60506E+06
 -1       618 2.86608E+05 7.54558E+05 1.41005E+08 1.05785E+06-3.75533E+06 1.29536E+07
 -1       619-4.87793E+05 9.55665E+04 1.33168E+08 2.48220E+05-2.81365E+06 6.07672E+06
 -1       620-1.99226E+06 1.85398E+05 1.48378E+08-8.12575E+05-2.93201E+06 5.45547E+06
 -1       621-1.32486E+06 1.72209E+05 1.10711E+08-7.08711E+05-2.41379E+06 3.31667E+06
 -1       622-1.10801E+06-3.93980E+05 1.17978E+08-3.42212E+05-3.20082E+06 5.37680E+06
 -1       623-1.60901E+06-6.58419E+05 1.33330E+08-8.52638E+04-3.62368E+06 1.90446E+06
 -1       624-1.05350E+06-1.10228E+06 6.57345E+07-2.41998E+05-3.37393E+06 1.63720E+07
 -1       625 1.61636E+06 9.94736E+05 8.24234E+07 8.35912E+04-2.29433E+06 1.83833E+07
 -1       626-3.95505E+05 4.42213E+05 1.00033E+08-3.82704E+04-4.28339E+06 1.75575E+07
 -1       627 1.89007E+05 8.04850E+05 4.33472E+07-2.43616E+05-2.01906E+06 1.55772E+07
 -1       628-6.44592E+04 4.23119E+05 5.90850E+07-7.22192E+04-3.22790E+06 1.65713E+07
 -1       629 1.05009E+06 3.78793E+06 5.66509E+07 1.10238E+06-2.31587E+06 1.74253E+07
 -1       630 7.41992E+07 1.20291E+06 7.58903E+08 7.25506E+06-6.07394E+06 3.40190E+07
 -1       631 9.85581E+07 8.82940E+05 7.96342E+08 4.85666E+06-1.33062E+07 3.08511E+07
 -1       632 9.09526E+07 7.70939E+06 7.84316E+08 6.59728E+06-6.73288E+06 4.35166E+07
 -1       633 3.95699E+07-3.54254E+06 6.92954E+08 1.07221E+07-4.83923E+06 2.98067E+07
 -1       634 1.30185E+08 1.41905E+06 8.21131E+08 5.03617E+06-1.57629E+07 2.79389E+07
 -1       635 2.38866E+06 2.14766E+06 2.12891E+08-1.26929E+06-3.40467E+06 2.39342E+07
 -1       636-1.16941E+06-8.73712E+05 2.38395E+08 1.22545E+06-5.62458E+06 2.42608E+07
 -1       637-1.17358E+06-1.07104E+06 2.50941E+08 7.31092E+05-6.92411E+06 2.10431E+07
 -1       638 9.89356E+05 1.15918E+05 2.82696E+08-3.92387E+05-4.43951E+06 1.66175E+07
 -1       639 1.26197E+06 1.05619E+06 2.51286E+08 1.36844E+06-5.05995E+06 1.72456E+07
 -1       640-1.24896E+06 5.32639E+05 1.69371E+08-2.23241E+05-4.72041E+06 2.62624E+07
 -1       641-5.89173E+04 6.36970E+05 1.84241E+08 8.93882E+04-5.79290E+06 2.31299E+07
 -1       642-1.44875E+06-1.07300E+06 2.45340E+08-4.89777E+05-6.50394E+06 1.28938E+07
 -1       643 1.23575E+06 2.38468E+06 2.24935E+08-1.70364E+06-4.37654E+06 1.81104E+07
 -1       644-2.17060E+05 4.23449E+05 1.92869E+08-1.08894E+05-5.61282E+06 1.85089E+07
 -1       645-1.63091E+06-8.89609E+05 1.87954E+08 2.92296E+05-4.35850E+06 2.22114E+07
 -1       646 2.30351E+06 1.04827E+06 1.56140E+08-3.74288E+04-3.39156E+06 2.47839E+07
 -1       647 1.67450E+06 1.43530E+06 1.93645E+08-2.65446E+05-6.00648E+06 2.67034E+07
 -1       648 4.20127E+05-9.75783E+05 2.41272E+08-5.10866E+05-5.96785E+06 2.49333E+07
 -1       649 4.63765E+05-2.62857E+04 3.09754E+08 8.48073E+05-6.06524E+06 1.55396E+07
 -1       650-9.11133E+05-2.36484E+05 3.05280E+08-1.09553E+05-6.44928E+06 1.10169E+07
 -1       651-1.53709E+06-2.24724E+06 3.20825E+08-2.90435E+05-6.16888E+06 1.83903E+07
 -1       652 2.06491E+06 2.30554E+06 2.77449E+08-5.98666E+05-2.67948E+06 2.42624E+07
 -1       653 1.64191E+06 8.61065E+05 3.11558E+08 1.13578E+06-6.16813E+06 2.22447E+07
 -1       654 1.94773E+06 8.10779E+05 3.49264E+08 3.76024E+03-5.59971E+06 1.26013E+07
 -1       655 4.08873E+05 6.45982E+05 2.22817E+08-3.29612E+05-5.73025E+06 2.77195E+07
 -1       656-2.67373E+06-6.94153E+06 1.13159E+08-2.17022E+06-4.21716E+06 2.36499E+07
 -1       657 1.15072E+06 1.01815E+06 1.41807E+08-5.05014E+05-6.33080E+06 2.55808E+07
 -1       658 2.82802E+06 4.32963E+05 1.42406E+08 4.95506E+05-3.63164E+06 2.59090E+07
 -1       659-1.59367E+04 1.61064E+05 2.45912E+08 2.60157E+05-3.90233E+06 8.24294E+06
 -1       660-1.89213E+06 3.07496E+05 2.66339E+08-1.05840E+06-4.05247E+06 7.26082E+06
 -1       661-1.68498E+06-6.36873E+05 2.81806E+08-3.93198E+05-6.02574E+06 5.14346E+05
 -1       662 5.40293E+05 1.96669E+06 2.91597E+08 1.53392E+06-4.36464E+06 6.69251E+06
 -1       663 1.07331E+06 9.91892E+05 3.22859E+08-5.13570E+05-3.95192E+06 4.57471E+06
 -1       664-2.84193E+06-1.55906E+06 1.92435E+08-8.25384E+04-4.39959E+06 1.51879E+07
 -1       665 9.53427E+05 1.70560E+05 1.68027E+08-1.70543E+05-3.18596E+06 2.04016E+07
 -1       666-1.11305E+06-4.89293E+05 1.82565E+08 8.86720E+05-4.76294E+06 1.25238E+07
 -1       667 6.41824E+05 1.23382E+06 2.10709E+08-1.24357E+04-4.29037E+06 1.00350E+07
 -1       668-1.46785E+06-3.31459E+05 2.15628E+08-6.75683E+05-3.78525E+06 4.41343E+06
 -1       669-7.49418E+05-4.50712E+05 2.25727E+08-3.12204E+05-4.56840E+06 7.19735E+06
 -1       670-1.94077E+06-1.27329E+06 2.47002E+08 8.19351E+03-4.92482E+06 2.61973E+06
 -1       671-1.88255E+06-9.17472E+05 1.32481E+08-7.11090E+05-4.61065E+06 2.30489E+07
 -1       672-2.22311E+04 5.68557E+05 1.40937E+08 4.02734E+05-5.15142E+06 1.96656E+07
 -1       673-2.09792E+06-3.26761E+06 8.63732E+07-1.71981E+06-3.93855E+06 2.15095E+07
 -1       674 8.46389E+03 4.76169E+05 1.15705E+08 2.44089E+05-4.80377E+06 2.27422E+07
 -1       675 2.75338E+06 7.23280E+06 1.10178E+08 1.94069E+06-3.00486E+06 2.33968E+07
 -1       676 1.44724E+06 1.41083E+06 1.19092E+08-1.17962E+06-2.79961E+06 1.83903E+07
 -1       677-2.29094E+06-2.09322E+06 1.37699E+08 1.18091E+06-3.87540E+06 1.91025E+07
 -1       678-9.76661E+05-1.54190E+05 1.43514E+08 1.33443E+04-5.43686E+06 1.62221E+07
 -1       679-7.13053E+04-1.92877E+05 1.63145E+08-4.19833E+05-3.12934E+06 1.28504E+07
 -1       680 1.78504E+06 5.35965E+04 1.11824E+08 4.44190E+04-3.17828E+06 2.15751E+07
 -1       681-1.27981E+06 1.87791E+05 1.78487E+08-3.47147E+05-4.91202E+06 8.84075E+06
 -1       682-1.40202E+06-1.70760E+05 9.29768E+07-2.66853E+05-3.64338E+06 2.00639E+07
 -1       683-1.98136E+06-2.64357E+06 6.07790E+07-1.48253E+06-3.46964E+06 1.82303E+07
 -1       684 2.06586E+05 5.17977E+05 8.09326E+07 2.68104E+05-3.96324E+06 1.95971E+07
 -1       685 2.31971E+06 5.60071E+06 8.15873E+07 1.78299E+06-2.50882E+06 2.06130E+07
 -1       686-1.74180E+06-4.87428E+05 1.59318E+08-2.18182E+05-4.41539E+06 4.87030E+05
 -1       687-2.96505E+05 1.13144E+06 1.67362E+08 1.23028E+06-3.65215E+06 5.09012E+06
 -1       688-1.24655E+05 5.87193E+05 1.88821E+08-4.83321E+05-4.04029E+06 2.91999E+06
 -1       689 2.06337E+07-7.51039E+05 3.66182E+08-2.12317E+06-4.82586E+06 1.40282E+07
 -1       690 2.78150E+07 3.74887E+06 3.49276E+08-1.91191E+06-4.77005E+06 4.70703E+06
 -1       691 2.49812E+07-2.22092E+06 2.96120E+08-6.15800E+06-5.31679E+06-2.15876E+06
 -1       692 4.72259E+07 2.49183E+06 3.78818E+08-5.62023E+06-1.98956E+06-1.55960E+07
 -1       693 5.28586E+07-1.14469E+07 4.13655E+08-1.10577E+07 8.77343E+05-2.49147E+07
 -1       694 1.76705E+07 1.69861E+06 3.13551E+08-1.95444E+06-2.86945E+06 1.81029E+07
 -1       695 1.94524E+07 1.44714E+05 4.08820E+08-1.84534E+06-5.17314E+06 1.69346E+07
 -1       696 1.45959E+07 3.29080E+06 2.75588E+08 8.90914E+05-4.30983E+06 2.15911E+07
 -1       697 1.58023E+07-7.72853E+05 4.24667E+08-1.66852E+06-7.28281E+06 2.10316E+07
 -1       698 1.29504E+06 1.70656E+06 3.03394E+08-4.75256E+04-4.86842E+06 2.65700E+07
 -1       699 3.84779E+06 2.48048E+06 3.55209E+08-1.69551E+06-5.47144E+06 2.09363E+07
 -1       700 5.68292E+05-6.01731E+05 3.83542E+08 2.39680E+05-7.46432E+06 1.71345E+07
 -1       701 1.44657E+06-8.72837E+05 3.74642E+08 6.12481E+05-7.13796E+06 2.20233E+07
 -1       702 1.77552E+06 1.04053E+06 3.90258E+08 8.57678E+05-6.48434E+06 1.06716E+07
 -1       703 2.73664E+06-1.37075E+06 4.18200E+08-1.52669E+06-6.53360E+06 1.12471E+07
 -1       704-2.25609E+05 4.81716E+05 3.56544E+08-9.75260E+05-3.87236E+06 5.51790E+06
 -1       705 1.16083E+06-3.69154E+05 3.67789E+08-3.47694E+05-6.19438E+06 8.63821E+06
 -1       706-1.27386E+06-1.55606E+06 3.95193E+08 3.49604E+05-6.12954E+06 3.34516E+06
 -1       707 2.77133E+06 1.79445E+06 2.47930E+08-3.21321E+05-4.57299E+06 2.77591E+07
 -1       708 2.09826E+06 1.12622E+06 2.87989E+08 1.35444E+05-5.95999E+06 2.71328E+07
 -1       709 4.35740E+05-5.76858E+04 1.52569E+08-7.34663E+05-5.17975E+06 2.69586E+07
 -1       710 6.82766E+05-1.10888E+06 1.91184E+08 2.18600E+05-4.76060E+06 2.79814E+07
 -1       711 2.52710E+06 1.93068E+06 1.75623E+08 2.30699E+06-3.60052E+06 2.77293E+07
 -1       712 3.53723E+06-6.27793E+05 3.34783E+08 7.61786E+05-6.20774E+06 2.65305E+07
 -1       713 3.85280E+06 1.68738E+05 3.74525E+08-1.97874E+06-7.94672E+06 2.32543E+07
 -1       714 4.76182E+06-2.09828E+06 3.72585E+08-1.00419E+06-4.37161E+06 2.37807E+07
 -1       715 5.36626E+06-7.62167E+05 4.18206E+08 2.39515E+05-6.75446E+06 2.19580E+07
 -1       716 6.19168E+06-8.68304E+04 4.55147E+08 5.10850E+05-6.35279E+06 1.88688E+07
 -1       717 3.53298E+06-9.93450E+05 4.54437E+08-6.11415E+05-7.42665E+06 1.47961E+07
 -1       718-1.34316E+06-1.72994E+06 4.36704E+08-7.30943E+05-7.45754E+06 3.10066E+06
 -1       719 4.39023E+06 1.27671E+06 4.44166E+08 1.33074E+06-6.02363E+06 1.06100E+07
 -1       720 7.36079E+06 1.72755E+06 4.85225E+08-6.25849E+05-7.02176E+06 8.22367E+06
 -1       721 1.38499E+06-1.38845E+06 2.81099E+08-8.21639E+05-6.47849E+06 2.92854E+07
 -1       722 4.52267E+06-1.90883E+06 3.08643E+08-4.37446E+05-6.73025E+06 2.84527E+07
 -1       723 5.73886E+06 7.54300E+05 3.55192E+08-1.65384E+05-8.62444E+06 2.57881E+07
 -1       724-3.33281E+05 2.65487E+05 1.89582E+08-1.87761E+06-4.71726E+06 2.67224E+07
 -1       725 3.47356E+06 2.11000E+06 2.38874E+08-1.42786E+05-5.63824E+06 2.83407E+07
 -1       726 4.07667E+06 6.92236E+06 2.17661E+08 2.29568E+06-5.16195E+06 2.90563E+07
 -1       727 9.99309E+06 1.16115E+06 4.64762E+08-9.28084E+05-5.09413E+06 2.10805E+07
 -1       728 1.03326E+07 1.94068E+06 4.09946E+08-2.25862E+05-5.61330E+06 2.47601E+07
 -1       729 1.08545E+07 7.24607E+05 4.47940E+08-6.65591E+05-6.77659E+06 2.19260E+07
 -1       730 1.58063E+07 2.39308E+06 4.47525E+08-1.00225E+06-7.90947E+06 2.18305E+07
 -1       731 1.70983E+07 5.64472E+05 5.07311E+08-2.62276E+05-6.96200E+06 1.94340E+07
 -1       732 1.14848E+07 2.57672E+06 5.03655E+08-1.66384E+05-6.51927E+06 1.64089E+07
 -1       733 1.52931E+07-2.18911E+05 5.48639E+08-7.45091E+05-7.90188E+06 1.48715E+07
 -1       734 6.75785E+06-1.10909E+06 5.21258E+08-1.08401E+05-6.68968E+06 1.01343E+07
 -1       735 1.14047E+07 3.00247E+05 5.28010E+08 5.26359E+05-7.31586E+06 1.30040E+07
 -1       736 1.00987E+07-3.71479E+06 5.65168E+08 1.34543E+06-6.39552E+06 1.03035E+07
 -1       737 9.13246E+06 2.59577E+06 3.43396E+08-6.98669E+05-7.69864E+06 2.58763E+07
 -1       738 1.21499E+07-2.45626E+05 3.77670E+08-5.58415E+05-6.33679E+06 2.40700E+07
 -1       739 5.24513E+06-3.55674E+06 2.36714E+08-2.21450E+06-6.06318E+06 2.58065E+07
 -1       740 6.50694E+06 1.49010E+06 2.85370E+08-1.15532E+06-7.43851E+06 2.49607E+07
 -1       741 3.10185E+05-3.01517E+05 1.45674E+07-3.13532E+05-1.94896E+06 9.48209E+06
 -1       742 3.74014E+05 1.19418E+06 1.72650E+07 5.78846E+05-2.26044E+06 1.05897E+07
 -1       743-6.14999E+04-2.43545E+05 1.41089E+07 1.29140E+04-1.67272E+06 8.57294E+06
 -1       744-3.13252E+05 8.73044E+03 1.70220E+07 3.55322E+05-1.36949E+06 7.44794E+06
 -1       745 4.85116E+05-3.29558E+05 1.09880E+07 1.67474E+05-1.65645E+06 8.43138E+06
 -1       746-5.08131E+04-3.46022E+04 6.96128E+06-3.71877E+05-1.14541E+06 7.22505E+06
 -1       747 8.52480E+07-4.05334E+06 4.32880E+08-1.55486E+07 1.25094E+06-4.53232E+07
 -1       748 1.21222E+08 1.28668E+07 4.51055E+08-1.48496E+07 1.09279E+07-5.04822E+07
 -1       749-7.19779E+04-4.30104E+05 3.39685E+07 3.55686E+05-2.03244E+06 1.40115E+07
 -1       750-5.25214E+05 2.09962E+05 9.79428E+06-1.67120E+04-1.26287E+06 3.77986E+06
 -1       751-1.03629E+06-4.54673E+04 9.67149E+06-9.59124E+04-8.25254E+05 2.42918E+06
 -1       752-3.34612E+05 1.22859E+05 1.25680E+07-3.81625E+05-1.69075E+06 6.07884E+06
 -1       753-7.33069E+05-4.14668E+04 5.60739E+06-2.47897E+05-1.05655E+06 4.03172E+06
 -1       754-4.95863E+05-4.32314E+04 9.47219E+06 2.00906E+05-4.49072E+05 5.15012E+06
 -1       755-1.06463E+05-1.09123E+05 8.39654E+06-5.69268E+04-1.44695E+06 6.24992E+06
 -1       756-9.35983E+05 1.96129E+03 7.20996E+06 2.05000E+05-9.28799E+05 1.84416E+06
 -1       757 1.04114E+06-6.15665E+06 4.01897E+08 6.90119E+06-6.31841E+06-6.91359E+06
 -1       758 4.76490E+06 7.12883E+05 4.25469E+08 9.97753E+05-6.92739E+06-4.28871E+06
 -1       759 1.11943E+07 2.52329E+06 4.44021E+08 1.07614E+06-4.75938E+06 4.83757E+05
 -1       760 6.02551E+06-2.89235E+06 4.59862E+08 4.28285E+06-1.07572E+07-5.06423E+06
 -1       761 7.26329E+06 2.80810E+06 4.69469E+08 4.49896E+05-6.65570E+06-5.59386E+06
 -1       762 6.57930E+06 5.28292E+05 5.25154E+08 4.16619E+05-5.75789E+06-3.41022E+06
 -1       763-1.41893E+06-1.84140E+05 5.42979E+07 5.07510E+04-2.41039E+06 1.32435E+06
 -1       764-6.47166E+05 7.60183E+04 6.58217E+07 3.27501E+05-2.18166E+06-1.17305E+06
 -1       765-8.89772E+05 4.08634E+05 5.70990E+07-4.90678E+05-1.88625E+06-9.00375E+05
 -1       766-2.73607E+05-7.06479E+05 2.31555E+06-3.39172E+04-5.50648E+05 4.67270E+06
 -1       767 3.66745E+05-1.15958E+05 1.16993E+06-3.85613E+04-4.87556E+05 5.06690E+06
 -1       768 2.30615E+05 1.91795E+05 3.22784E+06-1.56827E+05-8.61888E+05 5.32539E+06
 -1       769 2.20518E+05 1.19709E+05 5.64626E+06-9.55403E+04-1.12606E+06 6.60865E+06
 -1       770-3.08862E+04 6.58245E+04 1.12708E+06-1.41257E+05-4.55505E+05 3.82479E+06
 -1       771-2.60884E+05-2.47524E+05 2.91398E+06-1.09856E+05-4.63231E+05 4.04136E+06
 -1       772-6.55607E+05-1.01674E+05 3.75864E+06 9.62116E+04-6.54048E+05 3.14379E+06
 -1       773 9.11674E+04-2.21419E+05-1.02333E+06-1.66011E+03-8.91052E+05 3.43671E+06
 -1       774-3.37608E+05-4.62779E+05-1.20393E+06-1.42560E+05-7.70428E+05 3.34115E+06
 -1       775-9.13758E+05 2.06552E+05 4.44949E+06-6.11091E+04-5.66224E+05 1.91391E+06
 -1       776-1.24477E+06-2.30440E+04 4.86082E+06-1.61987E+05-4.91680E+05 9.78000E+05
 -1       777-9.43745E+05 1.70667E+04 5.59843E+06 1.56466E+04-4.52212E+05 1.35222E+05
 -1       778 1.05918E+08-1.86928E+06 6.89579E+08 2.50092E+07 2.78312E+06 6.88962E+07
 -1       779 1.11532E+08-1.76338E+07 7.74463E+08 8.27225E+06-2.24780E+06 6.45016E+07
 -1       780 1.01132E+08 4.79632E+06 7.69424E+08 1.16646E+07-8.62997E+06 5.09630E+07
 -1       781 1.26424E+08-5.48305E+06 8.27185E+08 1.30420E+07-7.30181E+06 4.58546E+07
 -1       782 1.53833E+08 4.30200E+06 8.64322E+08 6.59874E+06-2.08656E+07 3.33616E+07
 -1       783 5.42960E+07-5.57522E+06 6.07526E+08 1.99730E+07 5.51353E+06 7.61409E+07
 -1       784-7.81631E+05-3.65655E+04 2.48430E+06-1.13910E+05-5.29553E+05-9.32014E+05
 -1       785-1.04406E+06-7.86740E+04 5.46757E+06-8.18627E+04-8.04799E+05-6.30295E+05
 -1       786-8.23322E+05 2.00179E+04 4.05722E+06 4.24920E+04-4.68235E+05-1.11448E+06
 -1       787-6.32492E+05-8.59013E+04 6.44937E+06-5.02486E+04-6.69800E+05-1.27971E+06
 -1       788 3.96860E+06 2.22471E+05 3.37502E+08 2.58769E+06-8.63682E+06-1.00856E+07
 -1       789 1.50516E+06-2.21795E+06 3.89295E+08 3.50994E+05-3.93698E+06-1.06315E+07
 -1       790 1.34294E+04 1.16293E+06 3.13912E+08 1.23511E+06-3.28650E+06-9.71108E+06
 -1       791 3.26469E+05 9.04746E+05 3.35409E+08 1.92160E+04-7.01222E+06-9.73533E+06
 -1       792 2.73844E+06 4.25691E+05 4.42334E+08 1.52510E+06-7.00869E+06-6.37641E+06
 -1       793 5.94560E+06 6.00301E+05 4.58229E+08 3.00407E+05-5.45747E+06-5.15884E+06
 -1       794 2.03552E+06-2.34268E+06 5.12628E+08-2.11150E+05-7.31866E+06-3.70109E+06
 -1       795 2.63472E+06 2.72002E+05 4.37350E+08 1.18386E+06-6.57271E+06-4.68394E+06
 -1       796 2.62588E+06-1.70279E+05 4.80320E+08-2.85270E+05-7.76867E+06-5.01296E+05
 -1       797 7.60978E+05-2.76401E+06 3.41133E+08 2.45324E+06-7.76314E+06-1.02196E+07
 -1       798 8.92802E+05-7.08228E+05 4.05237E+08-3.99985E+05-5.54436E+06-8.74761E+06
 -1       799 3.59863E+06 1.13062E+06 4.39531E+08-1.25142E+05-6.93799E+06-1.21217E+06
 -1       800 9.24138E+06 2.73616E+05 5.48064E+08 2.15195E+06-7.11387E+06 4.17935E+06
 -1       801 9.72565E+06 1.35507E+06 5.29512E+08-5.88552E+05-6.46158E+06 4.77458E+06
 -1       802 4.79309E+06-5.10668E+04 4.98465E+08 1.19810E+06-7.78769E+06 5.59119E+06
 -1       803-1.36417E+06-1.82136E+06 7.23840E+07 3.18587E+05-2.97327E+06-6.36200E+06
 -1       804-9.44060E+05-9.55801E+05 8.82718E+07 8.05644E+05-3.55385E+06-5.08879E+06
 -1       805-5.75510E+05 2.61348E+05 8.67464E+07-2.95386E+04-3.20740E+06-4.18568E+06
 -1       806-8.07582E+05 4.91670E+05 9.25557E+07 1.88143E+05-3.34362E+06-6.07225E+06
 -1       807-1.30310E+06-3.12996E+05 1.07416E+08-5.61099E+05-3.16422E+06-4.53895E+06
 -1       808-3.64742E+04-8.32418E+05 9.38776E+07 6.60592E+05-3.58138E+06-7.94309E+06
 -1       809-9.34269E+05 2.69616E+05 7.92442E+07 2.39362E+05-2.96921E+06-2.37024E+06
 -1       810-4.93902E+05 3.81580E+05 9.30740E+07-5.09721E+05-3.02764E+06-5.87449E+05
 -1       811-8.80670E+05 1.81582E+05 7.52267E+07-1.30129E+05-2.20307E+06-1.11904E+06
 -1       812-1.19483E+06 7.96430E+04 1.19489E+08 3.82674E+05-3.02988E+06-2.02623E+06
 -1       813-1.34917E+05 5.66922E+05 1.12393E+08-4.10158E+05-3.04424E+06 2.18274E+05
 -1       814-1.90435E+06 1.68981E+04 9.84838E+07 8.96845E+04-3.20313E+06 1.79111E+06
 -1       815-1.02510E+05-1.79847E+06 1.26141E+08 1.38618E+06-3.04471E+06-8.88989E+06
 -1       816-2.30653E+06-3.58137E+06 1.48372E+08 7.39540E+05-4.54082E+06-9.05311E+06
 -1       817-1.34189E+06 1.46780E+06 1.23109E+08 2.11628E+05-2.73196E+06-8.63111E+06
 -1       818-5.30165E+05-1.86677E+06 1.75285E+08 1.59507E+06-4.93338E+06-7.02245E+06
 -1       819-1.94408E+04 1.02674E+06 1.77668E+08 6.04463E+04-4.98130E+06-5.93920E+06
 -1       820-6.75013E+05 1.10735E+06 1.78331E+08 4.51329E+05-4.41885E+06-8.25632E+06
 -1       821-1.59406E+06-3.35271E+05 2.06795E+08-6.13258E+05-4.44846E+06-6.37677E+06
 -1       822 5.94505E+05-1.61642E+06 1.75926E+08 1.43458E+06-4.78770E+06-1.09470E+07
 -1       823-1.18148E+06 3.34449E+05 1.64111E+08 1.72000E+05-3.99349E+06-3.76723E+06
 -1       824-1.60170E+06 3.34916E+05 1.88072E+08-7.03038E+05-3.63790E+06-1.93029E+06
 -1       825-8.18194E+05-1.51084E+06 1.23047E+08 4.80699E+05-3.73780E+06-7.79811E+06
 -1       826-4.65502E+04 2.80569E+05 1.50261E+08-6.00508E+05-3.70900E+06-6.63786E+06
 -1       827-6.93341E+05 6.76092E+05 1.61805E+08-6.93932E+04-2.96991E+06-2.23579E+06
 -1       828-9.59853E+05 3.14035E+05 2.25324E+08 5.51222E+05-4.24134E+06-2.70314E+06
 -1       829 3.99002E+04 5.10491E+05 2.17625E+08-2.04533E+05-4.33910E+06 5.25268E+05
 -1       830-1.30583E+06-9.46633E+04 2.01360E+08 8.33768E+05-4.53597E+06 1.63152E+06
 -1       831 4.01343E+05-3.62360E+06 2.16972E+08 2.70416E+06-4.32821E+06-1.12417E+07
 -1       832 6.07487E+04-4.89827E+06 2.53070E+08-1.60724E+05-7.32073E+06-1.17654E+07
 -1       833-1.34148E+06 2.99184E+06 2.16878E+08 3.73103E+05-3.79089E+06-1.14907E+07
 -1       834 1.06754E+06 3.24632E+05 2.89353E+08 1.75403E+05-5.95208E+06-7.47978E+06
 -1       835-5.37062E+04 5.52189E+05 3.00594E+08-2.33077E+05-4.67941E+06-6.41933E+06
 -1       836 3.96886E+05 2.12646E+06 2.92265E+08 1.14369E+06-6.05670E+06-9.53759E+06
 -1       837-1.31799E+06-5.33191E+05 3.39297E+08-7.47951E+05-4.69139E+06-8.37979E+06
 -1       838 1.71818E+06-2.21885E+06 2.81495E+08 2.50923E+06-6.27699E+06-1.39084E+07
 -1       839-9.34373E+05 6.72065E+05 2.83594E+08 4.43095E+05-5.59036E+06-4.59575E+06
 -1       840-1.56110E+05-5.57605E+05 3.17492E+08-6.66906E+05-6.06885E+06-2.37485E+06
 -1       841-6.65077E+05-2.84425E+06 2.19695E+08 9.83282E+05-4.98726E+06-1.03169E+07
 -1       842 7.20945E+05 6.20785E+05 2.63576E+08-6.38292E+05-5.18489E+06-8.77100E+06
 -1       843-4.40840E+04 1.14952E+06 2.83918E+08 8.01006E+03-4.28911E+06-2.60895E+06
 -1       844 7.21841E+05 3.01514E+05 3.67267E+08 1.14594E+06-5.58300E+06-3.38307E+06
 -1       845 2.10385E+06 1.20589E+06 3.58970E+08-7.31838E+05-5.14253E+06 5.74157E+05
 -1       846-8.88591E+05 6.06417E+05 3.34173E+08 3.07605E+04-5.01331E+06 3.30120E+06
 -1       847 6.48842E+07 1.00370E+06 7.18076E+08 1.02531E+07 1.62916E+06 5.08349E+07
 -1       848 6.22181E+07 2.63498E+06 6.41407E+08 1.25440E+07 4.65206E+06 5.21263E+07
 -1       849 5.28834E+07-1.43720E+05 6.41673E+08 1.38304E+07-6.18487E+05 4.60168E+07
 -1       850 4.49959E+07-1.09201E+06 6.28895E+08 4.25334E+06-4.02688E+06 3.00067E+07
 -1       851 4.11958E+07 7.24460E+06 6.15146E+08 6.69252E+06 9.11322E+05 2.90698E+07
 -1       852 1.65603E+08 1.36399E+06 8.61786E+08 4.46992E+05-2.69059E+07 2.02580E+07
 -1       853 2.98206E+07 3.60621E+06 5.82939E+08 2.24239E+06-6.87611E+06 1.53800E+07
 -1       854-1.03281E+06-2.20054E+06 1.06857E+08 6.67924E+05-3.83531E+06-7.57728E+06
 -1       855-1.73079E+06-2.87828E+05 1.29608E+08 5.86113E+04-4.32005E+06-5.40974E+06
 -1       856-1.33511E+06-3.91303E+06 1.96218E+08 1.19853E+06-5.66809E+06-9.98362E+06
 -1       857-2.12073E+06-5.21618E+05 2.35976E+08 1.72032E+05-5.97676E+06-7.09745E+06
 -1       858-1.57973E+06-4.64425E+06 3.13927E+08 2.86005E+06-8.67234E+06-1.02085E+07
 -1       859-1.58021E+06-9.29380E+05 3.74101E+08 3.11493E+05-8.53806E+06-7.92391E+06
 -1       860 1.69261E+07 3.06767E+06 4.92892E+08-4.80712E+05-5.19994E+06 2.70005E+06
 -1       861 7.26266E+06-7.69868E+05 5.49885E+08 2.35150E+06-5.43193E+06 5.35308E+06
 -1       862 1.02812E+07-4.44817E+05 5.47919E+08 7.02173E+05-6.92051E+06-3.48344E+05
 -1       863 2.16888E+07 2.62899E+06 5.43721E+08 3.92854E+06-6.30552E+06 1.22436E+07
 -1       864 1.03916E+07-3.80954E+06 5.67548E+08 1.65951E+06-8.22858E+06 1.99997E+06
 -1       865 1.56534E+07 1.39085E+06 5.78027E+08 1.44571E+05-6.15957E+06 6.96635E+06
 -1       866-4.04914E+05 7.54540E+05 1.47995E+08 5.49517E+05-3.15553E+06-1.25690E+06
 -1       867-1.84243E+04 8.04832E+05 1.33809E+08-7.06227E+05-2.78216E+06-2.37886E+06
 -1       868 2.30000E+05 1.20095E+06 2.65757E+08 8.53566E+05-4.11803E+06-1.58094E+06
 -1       869 8.55063E+05 1.35447E+06 2.45482E+08-9.02006E+05-3.66719E+06-3.33996E+06
 -1       870 1.94691E+06 2.20276E+06 4.17043E+08 1.04796E+06-5.84987E+06-6.80759E+05
 -1       871 3.26234E+06 1.88679E+06 3.90450E+08-7.82421E+05-5.22600E+06-3.19310E+06
 -1       872 1.02902E+05-9.65934E+04-2.07424E+05 2.10610E+04-2.23861E+04 7.80692E+04
 -1       873 1.14383E+05-3.29805E+04-6.34276E+05 2.49843E+04-6.34661E+04 1.93426E+05
 -1       874-1.39956E+07-1.22354E+07-1.65683E+08 1.18013E+06 1.90984E+07 9.37055E+06
 -1       875-3.40010E+06-1.77014E+05-1.66456E+08-6.60926E+05 1.21881E+06-5.91411E+03
 -1       876-1.41617E+06 2.71942E+06-1.52316E+08 1.36978E+05-6.72662E+05 3.12120E+06
 -1       877-2.18750E+06 1.94962E+06-1.45500E+08-5.86934E+05-1.74033E+06 3.00958E+06
 -1       878-5.38761E+06-1.09328E+06-1.57848E+08-2.17631E+05-2.36352E+05 4.00976E+06
 -1       879 1.32501E+06 2.84615E+06-1.18979E+08-1.38322E+06-8.85430E+05 7.15472E+05
 -1       880-1.99849E+06-4.79649E+05-1.30940E+08 1.38631E+05-3.22456E+06 4.19106E+05
 -1       881-4.74661E+06 2.91866E+05-1.03972E+08-1.15467E+06-5.12692E+05 5.48197E+05
 -1       882-3.50962E+06 2.06871E+05-1.10683E+08-1.29471E+05 1.00927E+06 7.41279E+05
 -1       883-1.10781E+06 7.67022E+05-8.30354E+07-5.05216E+05-2.20917E+05 4.85027E+05
 -1       884-1.90671E+06 1.05070E+05-8.92880E+07 4.01460E+05-9.60158E+05-2.74209E+05
 -1       885-2.34763E+06 4.48659E+05-6.68443E+07-6.96491E+05 6.61229E+04 1.21146E+06
 -1       886-2.30553E+06 2.37183E+05-7.37360E+07-8.00265E+05 2.62521E+05 6.75068E+05
 -1       887 1.81231E+05-2.71856E+06-4.08530E+07-4.15271E+05-5.36455E+05-3.02043E+05
 -1       888-3.09878E+06-1.27067E+06-5.29725E+07-3.50095E+05 1.36284E+06 8.44933E+05
 -1       889-1.22112E+06-3.46081E+04-5.89208E+07-3.76302E+04-2.21544E+05 1.76097E+06
 -1       890 7.58721E+05-1.56355E+06-2.83672E+07-3.49441E+05-3.59910E+05-5.54963E+05
 -1       891-3.22754E+06-1.91543E+06-4.10080E+07-1.13802E+06 3.10254E+05 8.11545E+05
 -1       892-2.09707E+06-1.07641E+06-2.95252E+07-8.16616E+05 5.81070E+05 4.04686E+05
 -1       893 7.84600E+05-1.95206E+05-1.84880E+07-4.79357E+05-1.92000E+05 5.52752E+02
 -1       894 1.22939E+06-7.97390E+05-2.03676E+07-6.15814E+04-2.22283E+05-7.30798E+05
 -1       895-6.55993E+05 4.85002E+04-1.25706E+07-1.76557E+05 1.34763E+05 3.25842E+05
 -1       896-2.94139E+05-2.56481E+04-1.50703E+07 7.23331E+04 1.14984E+05 3.22914E+05
 -1       897 7.63416E+05 7.42518E+04-5.81050E+06-3.26652E+04-8.68683E+04 2.43896E+05
 -1       898 2.94760E+05 7.64088E+04-8.17941E+06 1.63876E+04-1.16961E+05-7.31818E+04
 -1       899-5.07643E+04 9.74118E+04-2.37241E+06-5.83449E+03 3.08636E+04 3.14168E+05
 -1       900-6.95781E+04-5.50937E+04-4.40678E+06-1.36545E+05 1.69793E+05 4.17595E+05
 -1       901-8.03718E+04-9.87714E+04-8.34513E+06-9.51119E+04-9.17167E+05-2.68889E+06
 -1       902-6.29061E+05-6.79208E+04-4.32066E+06-1.32605E+05-7.86810E+05-3.03725E+06
 -1       903-5.37942E+05-3.89011E+04-1.57887E+06 1.10084E+05-3.44564E+05-1.85668E+06
 -1       904 5.15375E+04 7.13862E+04-7.72086E+07 3.13095E+04-2.67334E+06-4.70656E+06
 -1       905-8.41552E+04-1.18319E+05-9.33033E+07-4.43047E+03-3.30459E+06-6.09919E+06
 -1       906 3.44336E+05-3.61362E+05-6.95806E+07-9.85022E+04-1.86347E+06-7.71853E+06
 -1       907-1.12107E+06 9.23645E+05-1.96599E+08-3.94975E+05-2.79832E+06-1.79734E+07
 -1       908-1.40246E+06 5.37251E+04-2.21444E+08 1.79695E+03-4.06131E+06-1.87450E+07
 -1       909-2.33009E+06-1.36130E+06-2.76060E+08-5.52931E+05-5.58138E+06-1.92451E+07
 -1       910-2.68844E+06 4.95692E+05-3.46170E+08-3.54144E+05-5.48392E+06-1.08986E+07
 -1       911-1.84853E+06 3.43955E+05-3.63758E+08 1.09480E+05-6.03914E+06-4.91831E+06
 -1       912-3.34618E+06-4.20461E+05-3.87394E+08 1.42505E+05-6.56923E+06-1.01527E+07
 -1       913-2.05851E+04 2.57617E+05-3.86297E+07-3.19333E+05-2.96734E+06-6.07224E+06
 -1       914-6.84461E+05-5.59521E+04-3.71793E+07 4.92181E+05-7.96380E+05-7.65505E+06
 -1       915-1.73663E+05 2.99996E+05-2.67096E+07-2.56875E+04-1.51062E+06-5.48636E+06
 -1       916-3.66033E+07-1.04625E+06-4.78202E+08-7.30388E+05-6.95295E+06-2.39325E+05
 -1       917-3.98689E+07-1.10647E+05-4.39078E+08-4.86335E+05-4.15779E+06 2.14504E+07
 -1       918-1.68636E+07-2.64627E+05-3.40072E+08-5.44514E+05-2.82141E+06 9.61752E+05
 -1       919-5.84013E+05-8.36619E+04-5.23546E+07-2.13086E+05-2.22923E+06-9.02018E+06
 -1       920-1.81751E+05-5.12984E+05-4.93813E+07-2.52810E+05-2.11380E+06-6.96147E+06
 -1       921-3.03289E+07 1.34336E+06-3.25652E+08-8.51392E+05 3.97709E+06 1.26572E+07
 -1       922-4.00301E+05 2.55108E+05-1.01373E+08 2.74317E+05-2.58422E+06-1.07657E+07
 -1       923-1.16656E+06 1.29448E+06-8.78558E+07-5.86684E+05-3.31086E+06-1.14060E+07
 -1       924-3.79501E+05-1.23634E+04-7.95792E+07-8.91304E+04-2.70368E+06-9.64582E+06
 -1       925-2.65807E+06 8.43150E+05-2.94318E+08 4.57338E+04-4.90596E+06-1.47614E+07
 -1       926-1.18569E+06-3.36375E+05-3.14271E+08 4.16381E+05-6.61837E+06-9.78797E+06
 -1       927-2.79367E+05 3.04020E+05-1.44887E+08-4.22872E+05-3.66459E+06-1.14393E+07
 -1       928-8.54395E+05-4.56478E+05-1.20836E+08-9.82884E+03-2.43829E+06-1.43579E+07
 -1       929-6.45875E+05-1.02273E+06-1.15852E+08 4.02529E+04-3.38266E+06-1.11435E+07
 -1       930-3.06374E+06-1.54164E+05-3.38770E+08-2.36193E+05-6.07830E+06-1.57745E+07
 -1       931-1.57058E+05 5.04514E+05-1.97906E+08 6.34903E+05-3.67363E+06-1.41953E+07
 -1       932-1.04609E+06 1.63036E+05-1.63990E+08 9.84317E+04-3.97749E+06-1.52432E+07
 -1       933-7.05821E+05 8.86447E+05-1.63601E+08-4.76995E+05-3.77386E+06-1.27410E+07
 -1       934-5.05670E+06 1.12998E+06-2.98509E+08 7.72852E+05-1.17623E+06-1.72496E+07
 -1       935-1.46975E+06-3.29635E+06-2.15262E+08-1.81562E+06-3.42635E+06-1.54288E+07
 -1       936-4.24919E+06 5.84876E+05-3.05122E+08 3.74884E+05-5.41781E+06-1.89353E+07
 -1       937-1.08907E+06 1.45159E+04-2.50273E+08-9.03415E+05-5.16650E+06-1.46262E+07
 -1       938-9.19077E+05-1.57874E+06-2.11493E+08 2.54998E+05-4.51161E+06-1.46449E+07
 -1       939-3.26304E+06 1.29543E+06-2.17114E+08-4.86348E+05 1.84393E+05-1.20013E+07
 -1       940-5.98031E+06 7.95120E+05-3.97554E+08 2.79986E+05-7.17854E+06-1.65235E+07
 -1       941 3.06411E+05 2.15810E+05-5.14714E+06 2.65497E+04-4.46134E+05 7.11112E+05
 -1       942 2.26248E+05 6.95096E+04-1.28927E+06-7.18822E+03-1.77898E+05 2.26405E+05
 -1       943-1.53479E+07 3.46181E+05-4.56144E+08-4.29258E+04-7.81287E+06-1.59148E+07
 -1       944-1.22589E+07-1.30028E+06-3.85953E+08-7.08758E+05-6.15577E+06-1.58688E+07
 -1       945-8.70110E+06-5.07297E+05-3.86601E+08-6.59956E+05-7.57392E+06-1.77276E+07
 -1       946-1.30022E+06-2.74736E+05-1.58640E+08-2.47251E+05-4.12028E+06-1.68058E+07
 -1       947-4.05195E+07-1.21299E+05-5.74317E+08 3.78795E+05-1.04192E+07-1.42593E+07
 -1       948-2.54001E+07-8.91641E+05-4.80137E+08-2.57601E+05-6.42525E+06-1.14276E+07
 -1       949-2.52109E+06-6.48951E+05-1.26075E+08-4.05621E+03-1.37337E+06-1.24558E+07
 -1       950-4.63054E+05 3.09430E+05-2.78629E+08-1.10277E+05-5.63383E+06-9.17443E+06
 -1       951-6.50804E+05 1.26736E+05-2.90669E+08 2.49984E+05-4.99894E+06-2.27337E+06
 -1       952-1.32941E+06-1.07825E+06-1.61693E+08-1.53700E+05-3.61659E+06-1.59713E+07
 -1       953-1.42602E+05-6.05820E+04-1.13217E+08-1.87022E+05-3.73664E+06-1.41109E+07
 -1       954-2.03615E+05-8.64554E+05-1.07859E+08 2.23493E+05-3.46774E+05-1.04837E+07
 -1       955-9.24580E+05 7.32046E+05-1.21430E+08-7.44204E+05-3.01289E+06-1.40880E+07
 -1       956-3.02035E+05-1.69618E+05-8.26841E+07-4.80861E+05-3.07572E+06-1.23113E+07
 -1       957 7.43401E+05 1.30320E+06-8.13343E+07 2.09321E+05-8.71991E+05-1.04184E+07
 -1       958-9.10080E+06-1.28895E+06-5.30265E+08-4.54818E+05-5.84056E+06-8.79398E+06
 -1       959-7.74370E+06-6.87123E+06-5.34032E+08-9.67122E+05-7.81848E+06 2.45435E+06
 -1       960-6.60176E+06 2.93674E+06-5.58181E+08 2.61676E+06-6.00751E+06-8.18333E+06
 -1       961 4.92975E+04 4.68583E+05-4.64883E+07-1.15712E+05-1.90545E+06-4.00585E+06
 -1       962 4.21556E+05-6.03887E+04-5.27541E+07-2.49292E+04-2.48459E+06-1.67945E+06
 -1       963 3.15998E+05 4.58735E+04-6.18837E+07 5.18355E+04-2.33211E+06-4.62463E+06
 -1       964-9.91268E+05-4.28219E+05-8.72032E+07-1.08832E+05-2.44263E+06-1.22895E+07
 -1       965-5.36559E+05-2.01903E+05-5.65597E+07-3.98114E+05-2.07360E+06-1.00625E+07
 -1       966 1.14455E+06 7.32615E+05-5.74338E+07 2.50333E+05-1.12091E+06-8.70191E+06
 -1       967-1.07103E+06 1.13630E+06-5.97286E+07-6.47877E+05-2.54418E+06-1.02411E+07
 -1       968-6.79714E+05 1.35837E+04-3.43301E+07-2.42826E+05-1.68865E+06-8.17242E+06
 -1       969 2.03830E+05 7.75601E+05-3.68223E+07-2.30643E+02-1.22284E+06-7.54079E+06
 -1       970-7.12342E+05 2.30964E+06-4.95382E+08 1.10080E+06-4.36655E+06-1.82762E+06
 -1       971-8.73334E+05 1.27198E+05-2.86048E+07-3.07219E+05-1.56588E+06-7.58973E+06
 -1       972-9.51471E+04-1.54923E+05-2.10016E+07-4.30367E+05-7.63452E+05-5.65777E+06
 -1       973-4.76980E+05 3.45139E+05-1.69923E+07-3.31363E+05-5.41205E+05-5.60011E+06
 -1       974-7.57044E+05 4.97316E+04-6.34227E+06-2.39321E+05-6.65603E+05-4.05027E+06
 -1       975-6.15222E+05 2.79538E+05-5.92863E+05-1.02204E+05-3.64518E+05-2.14286E+06
 -1       976-2.64822E+05 2.39767E+05-8.29486E+07 1.16061E+05-2.55443E+06-1.56310E+06
 -1       977 2.52865E+05-1.79386E+05-1.62959E+06-1.31237E+05-4.91871E+05-2.54410E+06
 -1       978-6.73766E+07-4.33878E+05-7.09534E+08 2.19389E+06-1.38032E+07-4.59209E+07
 -1       979-1.35231E+08-2.02543E+06-7.67338E+08 8.35442E+06-1.98097E+07-5.06037E+07
 -1       980-1.09812E+08-1.49811E+06-7.00473E+08 1.63194E+05-1.74184E+07-1.98548E+07
 -1       981-8.69388E+07 1.04214E+07-7.75922E+08 1.57789E+07 6.99046E+06-9.77866E+07
 -1       982-1.73730E+08 1.39703E+07-8.09924E+08 1.87347E+07-2.97030E+07-6.01040E+07
 -1       983 1.23876E+05 8.00741E+05-1.16542E+08 1.60839E+05-3.42096E+06-6.84110E+06
 -1       984 2.78692E+05 2.49786E+05-1.23322E+08 7.70908E+04-3.50597E+06-2.32976E+06
 -1       985 3.13093E+05-4.95977E+05-1.37797E+08-3.40428E+05-3.85288E+06-6.65956E+06
 -1       986-1.92209E+06-5.65241E+05-4.02762E+08 3.01155E+05-5.33296E+06-3.46268E+06
 -1       987-2.20160E+05 7.56778E+05-3.73141E+08 7.16164E+05-3.59307E+06 3.49705E+06
 -1       988-4.67940E+05-2.59234E+06-4.05487E+08-2.86619E+05-5.09637E+06 7.10562E+06
 -1       989-5.62551E+07-1.35524E+06-6.49415E+08 6.05649E+05-1.22525E+07-2.49686E+07
 -1       990-2.54000E+07 6.95628E+05-6.06448E+08 8.12871E+05-8.69726E+06-2.13433E+07
 -1       991-6.62358E+05 3.75679E+05-1.59860E+08-1.42247E+05-3.87695E+06-7.90647E+06
 -1       992 3.55226E+05-7.47729E+04-1.70575E+08 3.64665E+04-3.97276E+06-2.99685E+06
 -1       993-3.00839E+05 7.14858E+04-1.88647E+08 4.94663E+04-4.44464E+06-8.06693E+06
 -1       994-6.45126E+04 1.25392E+06-2.16803E+08 2.43338E+05-4.51961E+06-9.24540E+06
 -1       995-1.02288E+04 3.58521E+05-2.26861E+08 4.92907E+04-4.82027E+06-3.23756E+06
 -1       996-6.77938E+03-9.52953E+05-2.43564E+08-5.25156E+05-5.07665E+06-8.77633E+06
 -1       997-6.79510E+07 2.43639E+06-5.23179E+08-1.56158E+06-7.37527E+06 2.02616E+07
 -1       998-6.99011E+07 4.84267E+05-6.04565E+08-3.61554E+05-1.02232E+07-5.62754E+06
 -1       999-1.13172E+08-2.25486E+06-5.65212E+08-3.14075E+06-6.44357E+06 4.06606E+07
 -1      1000-1.00178E+08 7.80041E+06-4.36661E+08-1.32487E+07-8.01170E+06 5.69677E+07
 -1      1001-5.85988E+07 3.25442E+06-4.25086E+08-4.16398E+05-2.20748E+05 4.21012E+07
 -1      1002-9.17018E+05 2.22148E+05-5.62856E+05-9.41446E+04-2.62154E+05-2.17550E+06
 -1      1003-7.47169E+05-1.03327E+05 1.03961E+06 1.44481E+04-1.52381E+05-1.38960E+06
 -1      1004-5.67137E+05-7.55902E+04-1.27347E+07-1.57316E+05-1.02632E+06-4.64372E+06
 -1      1005-2.14715E+08 1.58722E+07-8.63874E+08 8.85486E+06-2.06765E+07-1.91972E+07
 -1      1006-1.63211E+08 3.95497E+07-6.80363E+08-1.00274E+07-1.62090E+06 2.85663E+07
 -1      1007-1.79367E+08 1.16886E+07-7.74570E+08-5.78923E+06-1.72110E+07-1.57495E+06
 -1      1008-8.52908E+05 3.20571E+05-1.85551E+07-3.34688E+05-1.22018E+06-6.15180E+06
 -1      1009-1.24714E+06-7.40758E+05-2.33957E+08-2.62990E+05-5.23429E+06-1.79322E+07
 -1      1010-1.68500E+06 3.32184E+06-1.69236E+08-8.46995E+05-2.77181E+06-1.51763E+07
 -1      1011-7.76182E+06-2.65637E+05-2.69770E+08-8.50509E+04-3.41199E+06-9.25033E+06
 -1      1012-1.70708E+07-2.94623E+04-3.82780E+08 3.92359E+05-5.08686E+06-7.69558E+06
 -1      1013-4.03132E+06-8.93848E+05-4.33015E+08 9.38865E+04-5.22585E+06-1.01207E+07
 -1      1014-2.65182E+06-1.12504E+06-4.41294E+08-2.81048E+05-5.94729E+06-2.94294E+06
 -1      1015-7.05524E+06 2.49155E+05-4.80511E+08 3.51022E+05-7.21598E+06-8.70792E+06
 -1      1016 1.85282E+05-4.22257E+05-1.79978E+07-7.63831E+04-1.49776E+06-3.91973E+06
 -1      1017-1.29539E+08 1.46525E+06-6.63110E+08-1.25688E+06-1.33415E+07 1.83206E+07
 -1      1018 1.75687E+05-1.21968E+04-1.22123E+06 6.19938E+04-2.69737E+05-4.14272E+05
 -1      1019 1.89446E+05-4.74438E+04-1.19564E+05 2.96643E+04-5.12177E+04 2.07554E+05
 -1      1020-3.14698E+07-4.06017E+05-6.52841E+08 2.35274E+06-8.43012E+06-3.25718E+07
 -1      1021-2.62584E+05-2.30504E+05-7.22444E+06-1.82210E+04-3.78084E+05-3.55042E+06
 -1      1022 4.29620E+05-6.69843E+04-2.34306E+07-1.30479E+05-1.51667E+06-1.50044E+06
 -1      1023 1.95596E+05 3.02126E+05-1.24473E+07-4.60114E+03-1.03768E+06-1.87394E+06
 -1      1024 1.60509E+05 1.39796E+05-1.70480E+07 1.43765E+05-1.11024E+06-5.00132E+05
 -1      1025-1.15523E+07-1.23561E+07-5.58483E+08 2.88306E+06 2.20194E+06-1.37925E+07
 -1      1026 3.22580E+05 2.11459E+03-5.02702E+06-6.29763E+04-7.04806E+05-1.50090E+06
 -1      1027 3.77023E+05 5.86707E+04-4.69364E+06 3.62276E+04-6.21562E+05-1.95412E+05
 -1      1028 3.17508E+05 5.50426E+04-9.99356E+06-9.10210E+03-9.03296E+05-5.44292E+05
 -1      1029 4.97024E+05-6.78503E+04-9.73305E+06-6.33213E+04-4.55659E+05 8.23360E+05
 -1      1030 3.25575E+05-4.20621E+03-1.53684E+07 2.31388E+05-8.60821E+05 7.15861E+05
 -1      1031-2.22138E+05-3.40651E+05-5.74932E+07 8.42415E+04-6.67491E+05 2.10816E+06
 -1      1032 9.47689E+05 4.57043E+04-7.01739E+07-2.04944E+05-1.93009E+06 2.00816E+06
 -1      1033 6.46404E+05-1.53479E+05-5.26234E+07 5.82364E+04-1.42873E+06 1.68345E+06
 -1      1034 5.30782E+05-3.70687E+05-1.11212E+08 1.29332E+05-2.10218E+06 3.13266E+06
 -1      1035 6.88593E+05 6.31137E+04-8.89400E+07-8.38309E+04-2.12249E+06 2.42347E+06
 -1      1036-2.65141E+05 1.29045E+05-1.54519E+08-9.74794E+04-2.93924E+06 3.47073E+06
 -1      1037 4.87865E+05-1.43704E+05-1.30267E+08 1.74706E+05-2.42521E+06 3.12618E+06
 -1      1038 3.98355E+05 4.98879E+04-3.93483E+07-2.81849E+04-1.97096E+06-8.22118E+05
 -1      1039 5.77404E+05-1.54226E+05-2.98478E+07 7.24440E+04-1.14256E+06 5.89704E+05
 -1      1040 3.49021E+05-6.24265E+05-2.11397E+08 1.84304E+05-2.89926E+06 4.16910E+06
 -1      1041 8.74870E+05-5.33099E+04-1.79348E+08-7.29804E+04-2.82728E+06 3.37378E+06
 -1      1042-1.32744E+06 3.14513E+05-2.68345E+08 2.98654E+04-3.61694E+06 4.76765E+06
 -1      1043 2.28586E+05-1.74409E+05-2.36308E+08 3.28720E+05-3.11516E+06 3.97329E+06
 -1      1044 7.87857E+05 9.91022E+04-3.90508E+07 2.52483E+05-1.59000E+06 1.85688E+06
 -1      1045-4.33038E+05-2.36735E+06-3.34194E+08-2.23281E+05-5.10227E+06 4.12081E+06
 -1      1046 1.64843E+06 1.86948E+06-2.99422E+08 4.73658E+05-1.95428E+06 6.93083E+06
 -1      1047-6.35416E+05-7.10535E+05-3.30522E+08-1.22751E+05-5.25691E+06-2.55367E+06
 -1      1048 1.29671E+05 2.22772E+03-6.73880E+07-6.61637E+04-2.52152E+06-1.27327E+06
 -1      1049 2.68506E+05-2.11306E+05-1.02358E+08-1.00915E+05-2.72185E+06-1.60993E+06
 -1      1050 2.21889E+05-1.88777E+05-1.45425E+08-1.18124E+05-3.56048E+06-2.40543E+06
 -1      1051 1.17613E+05-4.17403E+05-1.98281E+08-3.10494E+05-3.88664E+06-2.39892E+06
 -1      1052-1.66520E+05-3.46778E+05-2.56739E+08-1.67013E+05-4.54165E+06-3.16817E+06
 -1      1053-3.81561E+05-2.07889E+05-1.01866E+06-1.69661E+04-3.04401E+05-1.04080E+06
 -1      1054 8.08528E+05 5.79782E+05-3.07625E+07 6.52151E+04-9.45867E+05 2.02402E+06
 -1      1055-1.92378E+07-3.47731E+05-5.51306E+08 1.33029E+06-8.90965E+06-1.48545E+07
 -1      1056-1.37374E+07 1.58701E+06-5.10125E+08-5.96524E+05-9.06338E+06-1.36821E+07
 -1      1057-9.04330E+06-5.25170E+05-4.52970E+08 5.59049E+04-7.70680E+06-1.36592E+07
 -1      1058 2.58190E+05 1.23710E+05-2.30924E+07-5.18495E+03-1.02774E+06 1.56225E+06
 -1      1059-5.55851E+06 1.89553E+06-5.94929E+08 4.68146E+06-4.11861E+06-1.19954E+07
 -1      1060-1.58364E+07-8.55344E+05-6.36885E+08 1.44858E+06 2.26048E+06-2.56549E+07
 -1      1061-5.73082E+07-8.37880E+05-7.40951E+08 6.02855E+06-7.93371E+06-7.74184E+07
 -1      1062-2.10150E+07-2.96496E+06-6.94458E+08 3.48696E+06-1.18325E+06-3.92592E+07
 -1      1063-3.68383E+07 8.54695E+06-7.52072E+08 4.46880E+06-4.11034E+06-2.72399E+07
 -1      1064-1.53695E+06-3.16003E+06-4.28082E+08-1.76687E+06-4.59885E+06 2.10768E+06
 -1      1065-2.38367E+07 1.50607E+06-5.29158E+08 1.87168E+05-8.35757E+06-1.60122E+07
 -1      1066 2.25552E+05-2.24268E+05-3.19624E+07 1.52049E+04-1.73299E+06-3.39868E+06
 -1      1067-9.20290E+07-1.01713E+08-4.52795E+08 3.29928E+07 5.78340E+07-7.83449E+07
 -1      1068 1.42277E+05-3.10194E+04-1.58448E+05-2.25152E+04-2.12292E+05 3.96468E+04
 -1      1069 7.29364E+04-1.74677E+04 1.08473E+04 4.06429E+03-5.35562E+04 1.14190E+05
 -1      1070 1.38995E+05-3.04247E+04-8.37221E+04 6.15178E+04 1.59731E+04 2.11781E+05
 -1      1071-3.71732E+05-9.33516E+04 8.16564E+05-3.02324E+04-4.70934E+04-8.61716E+05
 -1      1072-2.83443E+04 3.45290E+05 7.29810E+05-6.68930E+04-7.42677E+04-8.41817E+05
 -1      1073-1.42492E+06-1.01846E+05 2.25021E+05 2.40575E+04-7.78150E+04-1.02369E+06
 -1      1074-4.77393E+07 6.07045E+06-2.55656E+08-9.82089E+05 2.18579E+07 4.30420E+07
 -1      1075-5.06842E+07-6.58890E+05-3.09668E+08-4.56760E+06 1.47043E+06 3.69434E+07
 -1      1076-1.03737E+08-1.48413E+07-3.61790E+08-1.04605E+07-2.91044E+06 3.54662E+07
 -1      1077-8.86806E+07-2.59493E+07-7.00634E+08 1.62637E+07 3.12782E+07-6.32899E+07
 -1      1078-7.76162E+07-2.55674E+07-5.99394E+08 5.71272E+06 3.22326E+07-6.94450E+07
 -1      1079-1.19836E+08-1.22446E+07-6.50534E+08 1.15559E+07 1.31351E+07-8.58527E+07
 -1      1080-2.37983E+07-3.22736E+07-5.36785E+08 2.41097E+06 1.50626E+07-8.01422E+06
 -1      1081-4.82667E+07-3.03811E+07-5.45614E+08 6.59148E+06 2.26401E+07-1.93576E+07
 -1      1082-3.88491E+07 2.43676E+07-7.20214E+08 8.03133E+06 3.59041E+06-8.44931E+07
 -1      1083-2.15403E+07-1.84073E+07-5.51362E+08 1.08284E+07 7.90629E+06-4.44383E+07
 -1      1084-6.16819E+07 1.39661E+07-7.48123E+08 3.10118E+06-2.17595E+07-6.55513E+07
 -1      1085-4.31583E+07-2.93498E+07-5.55136E+08 6.73748E+06 1.07248E+07-1.79672E+07
 -1      1086-1.17536E+07-2.87676E+07-4.72684E+08 3.85685E+06 4.35117E+06-2.39021E+07
 -1      1087 9.36536E+06 2.82275E+07-6.63234E+08-1.86505E+06-4.60143E+06-2.61845E+07
 -1      1088-7.71912E+06-1.94988E+07-4.26625E+08 1.69936E+06-5.72078E+06-1.78237E+07
 -1      1089-3.22838E+07-2.06210E+07-4.99849E+08 1.19467E+06-2.39576E+06-1.64756E+07
 -1      1090 1.33201E+07 1.99815E+07-5.97223E+08 4.89048E+06 2.74877E+06-1.87819E+07
 -1      1091 1.65856E+06-8.65994E+06-3.72962E+08 1.11547E+06-1.50475E+06-1.00884E+07
 -1      1092-5.01291E+06-1.82952E+07-3.85633E+08 1.25071E+06-7.13672E+06-1.15399E+07
 -1      1093-1.03781E+07-8.90805E+06-4.69830E+08 4.36997E+06-1.00235E+07-1.21555E+07
 -1      1094 1.15533E+06 4.69994E+06-5.66618E+08 4.27234E+06-2.87951E+06-6.69227E+06
 -1      1095-1.24981E+06 1.57327E+07-5.91238E+08 3.17204E+06-2.63274E+05-1.55111E+07
 -1      1096-1.02267E+07-1.65656E+07-3.87995E+08 3.69152E+06-6.33557E+05 8.42879E+06
 -1      1097-2.80000E+07-8.39733E+06-4.61648E+08 1.32397E+06-1.02946E+07-1.31616E+06
 -1      1098-1.17437E+07-3.07558E+05-4.59095E+08 1.54569E+06 5.12063E+06-2.57809E+06
 -1      1099 4.00067E+06 1.16837E+07-5.21485E+08 1.68195E+06-8.34381E+06-4.37219E+06
 -1      1100-3.62700E+06 2.94261E+06-5.44974E+08 5.18988E+06 4.43355E+06-6.23334E+06
 -1      1101-1.10912E+07-2.50326E+07-3.50279E+08-2.51534E+06-1.06428E+06 7.07359E+06
 -1      1102-2.28812E+07-1.61660E+07-4.19098E+08 8.82785E+06-1.83313E+07 6.87570E+06
 -1      1103 2.33372E+07 1.83272E+07-4.61988E+08 4.34087E+06-4.59364E+06-1.79905E+06
 -1      1104-1.29951E+06-9.43865E+06-3.12663E+08 3.64375E+06 4.76439E+06 6.74349E+06
 -1      1105-2.96199E+07-2.00748E+07-3.73566E+08 4.36140E+06 3.64228E+06 8.63785E+06
 -1      1106 1.04686E+07 1.00780E+07-4.32918E+08-1.66897E+06-6.26785E+06-5.60567E+06
 -1      1107-8.67140E+06-1.74826E+07-2.92568E+08 2.30117E+06-4.28822E+05 6.13084E+06
 -1      1108-1.83974E+07-9.27053E+06-3.41923E+08 4.28282E+06-8.94382E+06 8.67162E+06
 -1      1109 1.82948E+07 1.34965E+07-3.81274E+08 2.41025E+06-5.18999E+06 2.61602E+06
 -1      1110-8.92539E+06-1.58603E+07-2.79146E+08 2.53192E+06-2.21405E+06 7.62828E+06
 -1      1111-2.07236E+07-1.58430E+07-3.27704E+08 6.56280E+06-1.01326E+07 5.74750E+06
 -1      1112 2.06046E+07 1.50055E+07-3.55343E+08 2.53229E+06-4.60946E+06 2.67555E+06
 -1      1113-8.42577E+06-1.63309E+07-2.40350E+08 1.74486E+06-1.91592E+06 7.47325E+06
 -1      1114-2.16181E+07-1.09862E+07-2.91905E+08 3.00544E+06-1.05735E+07 8.23858E+06
 -1      1115 9.57636E+06 8.04844E+06-3.26859E+08 9.11840E+05-5.68405E+06 5.30685E+05
 -1      1116-3.55951E+06-1.23437E+07-2.16493E+08 1.92921E+06-3.16913E+06 3.04323E+06
 -1      1117-1.41921E+07-1.74540E+07-2.54478E+08 3.40428E+06-7.20597E+06 7.00723E+06
 -1      1118 1.93453E+07 1.19482E+07-2.87545E+08 8.90957E+05-4.42459E+06 3.44806E+06
 -1      1119-7.57668E+06-1.09426E+07-2.00935E+08 1.27140E+06-6.50814E+05 6.35661E+06
 -1      1120-1.92634E+07-8.60715E+06-2.45138E+08 2.97993E+06-8.77759E+06 2.68349E+06
 -1      1121 1.07305E+07 9.29062E+06-2.61544E+08-4.18766E+05-3.62339E+06 4.06514E+06
 -1      1122-5.76376E+06-1.09583E+07-1.74714E+08 1.89918E+06-2.46228E+06 4.88546E+06
 -1      1123-1.26548E+07-9.84469E+06-2.08799E+08 3.39345E+06-6.45342E+06 6.29354E+06
 -1      1124 8.29832E+06 6.91449E+06-2.34548E+08 9.31552E+05-4.72114E+06 3.13054E+06
 -1      1125-5.93562E+06-9.42025E+06-1.55057E+08 1.12757E+06-7.90940E+05 5.72042E+06
 -1      1126-1.42215E+07-7.39460E+06-1.89765E+08 2.70926E+06-6.28924E+06 4.99063E+06
 -1      1127 8.60817E+06 6.47665E+06-2.06007E+08 1.51303E+05-4.35472E+06 3.05285E+06
 -1      1128-3.30555E+06-8.35378E+06-1.31518E+08 1.38326E+06-3.04459E+06 3.21823E+06
 -1      1129-8.39933E+06-9.02717E+06-1.56307E+08 2.32711E+06-5.24917E+06 5.50803E+06
 -1      1130 1.13390E+07 7.18314E+06-1.77807E+08 1.47370E+06-3.64413E+06 2.72983E+06
 -1      1131-4.28446E+06-6.46774E+06-1.15403E+08 5.19514E+05-1.36660E+06 4.61886E+06
 -1      1132-1.11415E+07-5.21986E+06-1.43168E+08 1.87370E+06-6.28409E+06 3.14362E+06
 -1      1133 6.69916E+06 4.82699E+06-1.55414E+08-2.69074E+05-3.60706E+06 2.73084E+06
 -1      1134-3.16829E+06-6.04661E+06-9.58116E+07 9.59717E+05-2.18092E+06 3.67120E+06
 -1      1135-6.80355E+06-5.47486E+06-1.16376E+08 2.04152E+06-4.52091E+06 4.75904E+06
 -1      1136 5.03856E+06 3.71321E+06-1.32562E+08 5.24067E+05-3.53361E+06 2.62803E+06
 -1      1137-3.18140E+06-4.95827E+06-8.11752E+07 4.75512E+05-1.24682E+06 3.84529E+06
 -1      1138-7.27381E+06-3.91601E+06-1.00972E+08 1.57164E+06-4.19228E+06 3.73754E+06
 -1      1139 4.74166E+06 3.23692E+06-1.11471E+08 7.23747E+04-3.06898E+06 2.51145E+06
 -1      1140-1.55968E+06-3.91713E+06-6.47076E+07 6.00767E+05-2.40617E+06 2.55515E+06
 -1      1141-3.92801E+06-4.53790E+06-7.85490E+07 1.26258E+06-3.44024E+06 3.80756E+06
 -1      1142 6.06828E+06 3.59165E+06-9.12874E+07 7.27486E+05-2.50747E+06 2.29727E+06
 -1      1143-4.06499E+06-4.17908E+06-5.87106E+07 1.09446E+06-3.00510E+06 2.76083E+06
 -1      1144-4.24063E+06-2.71391E+06-6.58546E+07 1.16996E+06-4.52454E+06 1.81629E+06
 -1      1145 2.96024E+06 1.49460E+06-7.53596E+07-4.90946E+04-2.47647E+06 2.06731E+06
 -1      1146 1.70508E+05 2.13784E+05-4.08320E+07-4.90999E+05-9.22752E+05 1.37538E+06
 -1      1147-5.21620E+05-2.02868E+06-3.75982E+07-2.90764E+04-2.99276E+06 2.21337E+06
 -1      1148 2.36238E+06 1.18602E+06-6.05248E+07-6.89062E+05-7.57074E+05 2.80490E+06
 -1      1149-1.84853E+06-1.85162E+06-2.98119E+07 2.24172E+05-2.36416E+06 2.30443E+06
 -1      1150-2.66112E+05 3.71136E+05-3.61528E+07 8.75763E+05-3.07830E+06 1.86318E+06
 -1      1151-4.29305E+05-9.13117E+05-4.26534E+07-7.87040E+04-1.31694E+06 2.10468E+06
 -1      1152-7.98016E+05-9.56143E+05-5.48011E+07 9.26789E+05 1.05879E+05 3.06679E+06
 -1      1153 1.12874E+06 2.23560E+05-4.48290E+07 1.77637E+05-1.37344E+06 1.53264E+06
 -1      1154-9.27439E+05-1.31375E+06-2.20288E+07-8.38935E+04-1.39279E+06 1.00267E+06
 -1      1155 3.98065E+05-1.26505E+06-2.09421E+07-7.49999E+04-1.92543E+06 1.33331E+06
 -1      1156 2.04437E+06 1.58503E+06-3.12643E+07-1.69457E+05-1.09016E+06 2.16226E+06
 -1      1157-5.54926E+05-4.98817E+05-1.71747E+07 5.69896E+04-9.36133E+05 1.40753E+06
 -1      1158 2.19386E+05-8.03719E+05-1.70680E+07 1.16474E+05-1.64875E+06 8.00799E+05
 -1      1159 1.42380E+06 1.13321E+06-2.42518E+07 1.21334E+05-1.14688E+06 2.52465E+06
 -1      1160-1.45616E+05-4.64169E+05-7.46480E+06 2.87754E+04-9.01103E+05 8.56762E+05
 -1      1161-5.00676E+05-4.16741E+05-1.05879E+07 2.50619E+05-1.29145E+06 1.08538E+06
 -1      1162 8.78887E+05 3.76636E+05-1.17656E+07 2.25540E+05-6.15441E+05 7.53786E+05
 -1      1163 2.43907E+05-2.20157E+04-1.16362E+07 2.52669E+05-1.28429E+06 7.69466E+05
 -1      1164 6.11510E+05 4.94062E+05-1.79046E+07 2.31822E+05-1.03956E+06 1.05288E+06
 -1      1165 1.30370E+05-5.97598E+04-3.53270E+06-4.08296E+04-7.00928E+05 3.10072E+05
 -1      1166-2.03754E+05-2.34286E+05-5.13750E+06 1.87190E+05-8.91898E+05 8.57943E+05
 -1      1167 6.26675E+05 3.36586E+05-6.48758E+06-8.52505E+04-2.70265E+05 5.87431E+05
 -1      1168 1.12210E+03-2.73764E+04-1.02277E+06-2.27796E+04-2.85813E+05 1.64767E+05
 -1      1169-9.57035E+03-1.51932E+05-1.91606E+06 1.12954E+05-5.44539E+05 3.21879E+05
 -1      1170 6.12503E+05 2.40403E+05-2.53250E+06 7.06222E+03-3.40960E+05 4.09190E+05
 -1      1171 2.84003E+05 7.79594E+04-4.32473E+05-1.75899E+04-1.04459E+05 1.90970E+05
 -1      1172-4.68172E+07-2.00661E+06-3.28260E+08-3.40995E+06 6.60918E+06 3.20514E+07
 -1      1173-4.00996E+07 1.13100E+06-3.16866E+08-2.27394E+06-1.13837E+06 2.57758E+07
 -1      1174-8.62579E+07-2.04804E+06-4.43772E+08-3.74700E+06 6.39843E+06 6.19288E+07
 -1      1175-2.48532E+07-1.43099E+06-2.59365E+08-2.95504E+06 7.59472E+06 1.06151E+07
 -1      1176-1.71801E+07 4.72067E+05-2.39046E+08-5.38919E+05-4.04311E+06 5.04398E+06
 -1      1177-3.84137E+07 3.96921E+06-3.67481E+08-2.92912E+06-2.92142E+06 2.57555E+07
 -1      1178-6.35368E+06-4.92370E+05-2.12909E+08-1.17788E+06 4.79492E+06-5.20023E+06
 -1      1179-5.64376E+06 3.25035E+05-1.95382E+08-1.22764E+05-2.42290E+06-6.94273E+06
 -1      1180-1.01460E+07-2.88248E+06-2.44856E+08 2.65683E+05-3.37902E+05-2.76748E+06
 -1      1181-1.69302E+07 2.64473E+06-3.30371E+08-2.28826E+04 4.85991E+06 2.22055E+06
 -1      1182-5.77584E+06 3.42726E+06-2.93744E+08-2.33531E+06-6.24395E+06-5.48954E+06
 -1      1183-3.02365E+06 7.55631E+05-1.67942E+08-2.69540E+05 4.21569E+06-7.41571E+06
 -1      1184-3.54805E+06-4.43080E+04-1.60335E+08 4.11019E+05-2.26375E+06-7.51331E+06
 -1      1185 5.77587E+05 3.74293E+06-2.27000E+08-1.71471E+06-3.69016E+06-1.34200E+07
 -1      1186-2.62721E+06 7.78050E+05-1.35712E+08-1.76036E+06 2.17127E+06-8.64359E+06
 -1      1187-2.75369E+06-2.34839E+05-1.25007E+08 1.43939E+05-1.35605E+06-8.34691E+06
 -1      1188-7.99298E+05-1.80574E+05-1.54086E+08 6.72517E+05-9.26558E+05-1.02828E+07
 -1      1189-3.94998E+06-8.24292E+05-2.18538E+08-1.66074E+06-9.48485E+05-1.46048E+07
 -1      1190-4.92017E+05 1.10685E+06-1.90726E+08-9.80549E+05-7.15577E+05-1.50395E+07
 -1      1191-2.57180E+06 3.58906E+05-1.00819E+08-8.87125E+05 1.42803E+06-7.07182E+06
 -1      1192-2.23615E+06-5.93473E+05-9.49009E+07 1.76361E+04-1.25986E+06-5.51414E+06
 -1      1193-2.31406E+05 2.07061E+06-1.40108E+08-1.23776E+06-4.53572E+06-1.41458E+07
 -1      1194-1.92144E+04 2.69015E+05-8.31251E+07-8.96529E+04 1.25397E+05-5.98244E+06
 -1      1195-8.68133E+04-7.22305E+05-7.84623E+07 3.27693E+05-3.37718E+06-6.78386E+06
 -1      1196 2.23903E+05 5.10457E+05-1.11089E+08-6.10082E+05-2.00971E+06-1.13041E+07
 -1      1197 1.39724E+06 2.39107E+06-6.43271E+07 1.20128E+05 2.72760E+06-6.19450E+06
 -1      1198 7.69807E+05-7.53005E+04-5.64531E+07 1.34276E+06-4.02774E+06-6.47704E+06
 -1      1199 2.69085E+05-4.94221E+05-7.78004E+07 1.56758E+05-2.11905E+06-8.77960E+06
 -1      1200-7.58168E+05 9.25069E+05-1.12641E+08-3.55283E+05-2.28539E+06-1.27320E+07
 -1      1201 1.13028E+06 7.78967E+05-9.20837E+07 2.53029E+05-1.38663E+06-1.20521E+07
 -1      1202 1.17950E+06 2.01292E+06-4.57014E+07-7.24526E+04 1.23130E+06-5.26028E+06
 -1      1203 1.08564E+06-5.69063E+05-3.95524E+07 1.50854E+05-1.93869E+06-5.72509E+06
 -1      1204 4.10198E+05-9.95872E+05-5.57846E+07 5.24208E+04-1.72300E+06-7.47763E+06
 -1      1205-5.37701E+05 7.93096E+05-8.25514E+07-7.89187E+05-2.05510E+06-1.14704E+07
 -1      1206 1.08926E+06-1.84297E+05-6.60873E+07 6.30609E+04-1.58823E+06-1.02164E+07
 -1      1207 1.17406E+06 1.20157E+06-3.03195E+07-1.49332E+05 1.00577E+06-5.01287E+06
 -1      1208 1.76475E+05 1.73034E+05-2.51618E+07 9.08439E+04-6.39148E+05-4.13413E+06
 -1      1209 5.74881E+05-6.19088E+05-3.89992E+07 2.29506E+05-8.93394E+05-6.72905E+06
 -1      1210-9.86708E+04 8.14722E+05-5.78171E+07-7.76099E+05-1.45530E+06-9.76854E+06
 -1      1211 1.23279E+05 1.25660E+05-4.53549E+07-2.16416E+04-1.40157E+06-8.56422E+06
 -1      1212 1.36822E+05 1.51141E+05-1.79423E+07-1.87671E+05 4.85142E+05-3.35131E+06
 -1      1213 2.67327E+05-9.77522E+04-1.42805E+07 3.45435E+04-5.24137E+05-3.24869E+06
 -1      1214-4.40547E+05 1.52590E+05-2.43513E+07 3.67993E+04-5.20715E+05-4.89126E+06
 -1      1215-6.41060E+05-1.85560E+05-3.53126E+07-2.61980E+05-3.84268E+05-7.80008E+06
 -1      1216-3.17793E+05 1.61651E+05-2.58660E+07-4.59526E+05-1.42235E+06-7.05643E+06
 -1      1217 4.59992E+05 1.09115E+05-7.59324E+06-1.68136E+05 2.62232E+05-2.24703E+06
 -1      1218-1.13820E+05-5.71350E+04-5.85619E+06-4.13317E+04-8.44292E+04-1.92125E+06
 -1      1219-3.01992E+05 4.64535E+04-1.27473E+07 1.38422E+05-1.56969E+05-3.45686E+06
 -1      1220-7.89678E+05-2.97252E+04-1.92875E+07-2.23733E+05-3.26198E+05-5.43298E+06
 -1      1221-2.13300E+05-3.81253E+05-1.15987E+07-3.44824E+05-1.20423E+06-4.81493E+06
 -1      1222 6.01199E+05 7.56995E+05-2.51423E+06 7.17593E+04-2.22011E+05-1.22321E+06
 -1      1223 5.97573E+05-5.15674E+04-2.74982E+05-5.67447E+04 2.33241E+04-1.14482E+06
 -1      1224-6.42828E+05 6.27293E+04-5.70847E+06 6.55000E+04-8.70386E+05-3.12889E+06
 -1      1225-2.88910E+05-9.46175E+04-4.56380E+05 3.44427E+04-2.57903E+05-9.85810E+05
 -1      1226-4.81902E+05 4.34549E+04-1.26641E+06-4.40793E+05 1.14971E+05-2.24799E+06
 -1      1227-6.18452E+05-4.56017E+05 6.15407E+05-5.51993E+04-1.85392E+05-1.78582E+06
 -1      1228-2.80962E+08-1.52021E+08-8.67764E+08 3.82349E+06-5.42996E+07-4.48970E+07
 -1      1229-1.88684E+08-3.85887E+07-7.30472E+08 1.20374E+07-2.24536E+07-6.72161E+07
 -1      1230-1.27549E+08 2.30391E+07-7.60299E+08 2.07788E+07-8.53463E+06-7.44903E+07
 -1      1231-2.52380E+08-4.15482E+07-8.55723E+08 7.84209E+06-4.00779E+07-2.76329E+07
 -1      1232-3.14461E+08-1.69669E+08-9.33965E+08 3.41447E+07-1.95489E+07-1.05600E+07
 -1      1233-1.88684E+08 5.71061E+07-8.33779E+08 8.68496E+06-1.55668E+07-3.53079E+07
 -1      1234-1.97953E+08-1.62649E+07-6.74828E+08-1.27715E+07-5.74632E+06 2.76796E+07
 -1      1235-2.38913E+08-4.56948E+07-8.06228E+08-1.29679E+07-3.19222E+07 1.94277E+07
 -1      1236-2.30147E+08-3.44679E+07-8.41345E+08-1.00896E+07-3.13395E+07 3.98070E+06
 -1      1237-1.97341E+08 3.23361E+06-8.25098E+08-3.46298E+06-2.65839E+07-1.06623E+07
 -1      1238-1.72398E+08 4.04223E+07-7.32336E+08-6.73212E+06-7.97257E+06 1.66592E+07
 -1      1239-1.46920E+08 3.53397E+06-5.20383E+08-1.80594E+07 3.54934E+05 3.96170E+07
 -1      1240-1.54849E+08-1.74822E+06-5.71095E+08-1.15454E+07 8.47941E+06 4.68411E+07
 -1      1241-2.44270E+04 9.51840E+04-4.64374E+05-3.68954E+04-1.38533E+05-3.64198E+05
 -1      1242 1.34534E+05-5.64390E+04-5.02438E+05 2.11276E+04-8.52797E+03-6.87341E+04
 -1      1243 1.73887E+05-5.80205E+04-1.26181E+06-3.24918E+04-2.48960E+05-8.54372E+04
 -1      1244 2.18608E+05 1.12492E+05-3.62924E+05-4.82000E+03-6.34219E+04 1.01173E+05
 -1      1245-2.67514E+05-1.27778E+05-4.46490E+05 6.71977E+04 1.46424E+04-5.60602E+05
 -1      1246-7.99846E+05 1.19286E+05-6.36781E+05-2.31100E+05-5.27030E+04-9.62841E+05
 -1      1247-6.71003E+02-8.71305E+03-1.11529E+06 5.90511E+04-2.43167E+05-7.82932E+05
 -1      1248-6.64508E+05 5.04334E+04-6.31710E+05-8.73845E+04-6.51074E+04-1.33784E+06
 -1      1249-1.21676E+06 1.23909E+05-3.42567E+05-6.92071E+04 2.50223E+03-1.57659E+06
 -1      1250-3.94770E+05 3.51912E+03-1.19995E+06-1.79861E+05-2.75385E+05-1.48574E+06
 -1      1251-1.53248E+06-6.06380E+04 3.59345E+05-2.92601E+05-5.92834E+04-1.29891E+06
 -1      1252-8.09483E+05 1.15632E+05-1.04050E+06-1.21740E+04-3.67454E+05-2.06048E+06
 -1      1253-1.27559E+06 2.59334E+05 1.47426E+05-3.24794E+05 9.38894E+04-1.72587E+06
 -1      1254-1.17020E+06-4.28605E+05 2.17245E+05 1.26161E+05-2.20872E+05-1.48888E+06
 -1      1255-4.25713E+05 1.99649E+05-6.89154E+06 1.48492E+05-6.46267E+05-3.00969E+06
 -1      1256-4.85189E+05-1.50169E+05-2.72916E+06-2.37510E+05-2.68689E+05-2.43478E+06
 -1      1257-1.21722E+05 8.38729E+04-4.40971E+06-1.13767E+05-7.20819E+05-2.36336E+06
 -1      1258-2.53874E+05-1.17880E+05-1.04575E+07-2.52900E+05-6.36080E+05-3.78057E+06
 -1      1259-3.49696E+05-8.27627E+04-8.21124E+06-4.92639E+05-1.17427E+06-3.85833E+06
 -1      1260-1.06720E+05-1.23776E+05-3.32504E+06 2.31559E+05-4.93981E+05-1.86410E+06
 -1      1261-3.54857E+04-2.97772E+04-6.82470E+06-2.65703E+05-7.83596E+05-2.13139E+06
 -1      1262-2.31910E+05-6.17707E+05-1.63906E+07 2.75114E+05-1.21268E+06-4.45035E+06
 -1      1263-4.27539E+04-2.04832E+05-1.32023E+07-2.90911E+05-1.50767E+06-3.38552E+06
 -1      1264 1.08073E+05 2.10369E+05-1.56831E+07-2.78971E+05-6.85678E+05-2.83828E+06
 -1      1265 1.02690E+05 5.14552E+04-1.01758E+07 4.24076E+05-9.40974E+05-2.24400E+06
 -1      1266 4.33305E+05 6.99511E+03-8.25865E+06 1.41735E+04-8.43333E+05-1.70232E+06
 -1      1267-9.01405E+05 1.61702E+05-2.03458E+06 1.91090E+04-5.34800E+05-2.72502E+06
 -1      1268-9.10707E+05-1.07805E+05-5.29847E+06-3.21411E+05-4.55177E+05-3.54184E+06
 -1      1269-7.98602E+05 5.60052E+04-3.36338E+06-9.97151E+04-8.68171E+05-3.10971E+06
 -1      1270-7.54756E+05-2.49533E+04-2.13051E+06-2.03242E+04-4.00240E+05-2.79164E+06
 -1      1271-1.01517E+06-4.42136E+05-9.54769E+06 4.32615E+05-7.78699E+05-4.42187E+06
 -1      1272-5.87650E+05 4.15482E+05-1.37807E+05-3.07705E+05 7.52609E+02-2.20641E+06
 -1      1273-2.05164E+05-2.02574E+05-3.04890E+06-7.34860E+04-7.05274E+05-1.25618E+06
 -1      1274 4.95589E+05 3.36143E+05-8.37260E+07-2.16605E+04-2.89830E+06-5.18081E+06
 -1      1275 4.32997E+05-1.79193E+04-7.92214E+07-4.29083E+05-2.01964E+06-7.06802E+06
 -1      1276-7.06851E+05-8.94840E+05-7.35633E+07 3.74493E+04-2.00959E+06-6.22577E+06
 -1      1277-1.61531E+05 2.54071E+05-8.13813E+07 9.32095E+04-2.18221E+06-3.09932E+06
 -1      1278 4.22310E+05 4.86035E+05-8.67410E+07-3.92759E+05-2.36061E+06-3.75299E+06
 -1      1279 1.84744E+05 1.03497E+05-6.49437E+07-3.70806E+05-1.99776E+06-6.19294E+06
 -1      1280 2.72281E+05 6.32331E+05-6.77660E+07-6.20053E+05-2.58980E+06-4.89367E+06
 -1      1281 4.54105E+05 4.90703E+05-7.15454E+07-3.01975E+05-2.00700E+06-3.29930E+06
 -1      1282 1.45190E+05-1.56788E+05-6.44278E+07 3.14810E+05-1.84654E+06-3.13258E+06
 -1      1283 6.19777E+05 5.34076E+05-7.45277E+07-2.31798E+05-2.80906E+06-1.38557E+06
 -1      1284-7.35088E+05 4.36654E+05-8.72939E+07 2.19362E+05-2.86792E+06-8.32258E+06
 -1      1285 1.56159E+05 3.00494E+05-7.32791E+07-4.37426E+05-2.30636E+06-8.40738E+06
 -1      1286-6.88165E+05 6.20806E+05-9.62640E+07-1.86431E+05-1.92449E+06-8.48565E+06
 -1      1287 8.59067E+05 1.20220E+06-8.66203E+07-6.77772E+05-1.85828E+06-9.70366E+06
 -1      1288-3.62954E+05-3.40918E+04-1.07276E+08 7.22972E+05-2.41144E+06-8.83236E+06
 -1      1289 1.12616E+06 1.11850E+06-1.01618E+08 1.51465E+05-3.81308E+06-6.39649E+06
 -1      1290 6.59259E+05 4.85208E+05-9.10176E+07 6.02294E+04-2.92513E+06-1.59385E+06
 -1      1291-6.81914E+05 2.32014E+04-9.79787E+07 4.83747E+05-2.78400E+06-4.05464E+06
 -1      1292-1.71327E+05 2.15655E+05-1.07393E+08-3.75483E+05-2.26948E+06-4.06671E+06
 -1      1293-1.31474E+06 1.28033E+05-6.14208E+07 4.37637E+05-2.08548E+06-8.18834E+06
 -1      1294 6.71736E+05 1.14147E+06-4.93619E+07-8.10157E+05-2.22043E+06-7.85718E+06
 -1      1295 4.36989E+05 9.80979E+04-5.81140E+07-9.19546E+03-2.60192E+06-7.25646E+06
 -1      1296-3.08533E+05-2.39304E+05-6.33344E+07-6.02241E+05-2.35869E+06-9.64706E+06
 -1      1297-4.06769E+05-3.64649E+05-5.66569E+07 5.99720E+05-2.28463E+06-5.54480E+06
 -1      1298-5.45893E+05 2.53067E+06-2.10083E+08-1.96700E+06-1.26621E+06-1.93295E+07
 -1      1299-1.40968E+06 7.17554E+05-2.46597E+08 1.16244E+06-5.71764E+06-1.82286E+07
 -1      1300-1.33860E+06 2.35104E+05-2.33188E+08 4.06345E+05-3.79232E+06-1.95329E+07
 -1      1301-1.75867E+06 1.63875E+06-1.75380E+08-7.24175E+05-3.34114E+06-1.77953E+07
 -1      1302-9.38237E+05 1.20553E+06-1.90171E+08 1.56599E+06-4.03675E+06-1.84279E+07
 -1      1303-2.01426E+06-2.22800E+06-2.56668E+08-1.33088E+06-4.42337E+06-1.85490E+07
 -1      1304-6.40754E+05 1.80046E+06-2.15129E+08-6.60196E+05-5.46704E+06-1.87240E+07
 -1      1305-3.04068E+06-1.45072E+06-1.61068E+08 2.00895E+06 1.82710E+06-1.55725E+07
 -1      1306-1.44814E+06 1.49854E+06-1.41260E+08-1.42488E+06-3.64669E+06-1.45003E+07
 -1      1307-3.22036E+05 3.10544E+06-1.77874E+08-1.09572E+06-2.34808E+06-1.65875E+07
 -1      1308-2.21312E+06 1.26095E+04-2.02143E+08 6.35271E+05-2.72812E+06-1.75031E+07
 -1      1309-2.28992E+06 7.19585E+05-2.58444E+08 8.80790E+05-3.81987E+06-1.70537E+07
 -1      1310-2.21782E+06-2.28804E+06-2.83201E+08-1.62234E+06-4.34602E+06-1.64288E+07
 -1      1311-7.61959E+05 4.97803E+05-2.70456E+08-1.93646E+05-6.04055E+06-1.47205E+07
 -1      1312-1.19851E+06 7.38056E+05-2.31543E+08-1.36230E+06-3.10192E+06-1.69257E+07
 -1      1313-1.67612E+06-1.44132E+06-2.16810E+08-2.75394E+05-2.27957E+06-1.72214E+07
 -1      1314-1.44521E+06-2.39601E+05-2.30807E+08-1.17351E+06-5.71752E+06-1.49044E+07
 -1      1315-1.07482E+06-6.14398E+05-1.88033E+08-1.47496E+05-5.08700E+06-1.64016E+07
 -1      1316-1.75992E+06 1.54977E+05-1.88159E+08 1.09782E+05-4.14108E+06-1.71332E+07
 -1      1317-1.29191E+06-6.20504E+05-1.59780E+08-8.31855E+05-2.14438E+06-1.72839E+07
 -1      1318-2.01994E+06 9.95363E+05-3.16649E+08 3.69810E+05-6.86688E+06-1.59160E+07
 -1      1319-3.68278E+06 2.60313E+05-3.08708E+08 1.17634E+06-5.06476E+06-1.76540E+07
 -1      1320-2.50088E+06-2.16660E+05-3.21507E+08-1.40691E+06-5.62849E+06-1.77461E+07
 -1      1321-2.84798E+06 2.82413E+05-2.90524E+08 3.71042E+05-6.04996E+06-1.96643E+07
 -1      1322-3.70976E+06 5.69534E+05-2.71349E+08 3.70815E+05-5.59191E+06-1.89603E+07
 -1      1323-2.09571E+06-4.41683E+05-3.54961E+08 6.99509E+05-4.84961E+06-8.34432E+06
 -1      1324-1.72282E+06 7.79349E+05-3.74607E+08-8.24388E+05-5.10024E+06-6.92764E+06
 -1      1325-2.21990E+06-3.66517E+04-3.65661E+08-1.30297E+05-6.68414E+06-1.08495E+07
 -1      1326-1.59485E+06 8.51159E+05-3.38218E+08-1.01880E+06-4.93523E+06-6.72560E+06
 -1      1327 9.13083E+04 7.63617E+05-3.45570E+08-5.82572E+05-6.39038E+06-4.04980E+06
 -1      1328-4.53779E+06-1.14244E+06-3.66525E+08 1.46758E+06-6.59129E+06-1.36574E+07
 -1      1329-1.80330E+06 5.40445E+05-3.42044E+08-1.39370E+06-5.74966E+06-1.30296E+07
 -1      1330-2.04268E+06 2.90205E+05-3.21017E+08 6.66386E+05-5.32391E+06-1.29818E+07
 -1      1331-2.03420E+06 2.33383E+05-3.05993E+08 7.07427E+05-5.69608E+06-1.26414E+07
 -1      1332-1.01853E+06 9.80074E+05-3.27960E+08 6.76024E+05-6.31864E+06-1.07888E+07
 -1      1333-1.32737E+06 6.66301E+05-3.20852E+08 1.47963E+06-5.65152E+06-6.28079E+06
 -1      1334-1.45206E+06 8.32784E+05-3.80156E+08-8.68750E+05-4.84435E+06-3.52080E+06
 -1      1335-3.89422E+06 3.43613E+05-3.94786E+08 5.76369E+05-5.41509E+06-6.64590E+06
 -1      1336-4.04695E+06 7.65068E+05-3.63020E+08 1.27132E+05-4.54158E+06-7.10173E+05
 -1      1337-1.40736E+06 3.43475E+06-3.84422E+08-1.23661E+06-4.35725E+06 1.09098E+06
 -1      1338-9.61622E+04 6.11129E+05-3.44236E+08-3.54716E+05-4.17422E+06-4.82592E+05
 -1      1339-4.06065E+06 1.30880E+06-3.91894E+08-9.55731E+05-7.24012E+06-1.30823E+07
 -1      1340-3.92001E+06 2.36277E+05-3.67026E+08-3.22619E+05-7.77034E+06-1.65035E+07
 -1      1341-5.85817E+06 1.08217E+06-4.15997E+08 1.10218E+06-6.41434E+06-1.22879E+07
 -1      1342-2.77532E+06 2.44244E+05-4.05222E+08-3.08261E+05-5.74433E+06-9.86804E+06
 -1      1343-3.29378E+06-4.81315E+05-4.15586E+08-1.21632E+05-4.10349E+06-6.86025E+06
 -1      1344-2.35364E+05 5.63293E+05-3.69072E+07-4.01326E+05-2.03560E+06-6.88022E+06
 -1      1345-3.48449E+05 2.49552E+05-3.03925E+07 3.78589E+05-7.01155E+05-6.62346E+06
 -1      1346 5.96766E+05 5.71497E+05-3.17918E+07-2.86973E+05-2.32329E+06-6.01507E+06
 -1      1347-1.26989E+06-1.01308E+06-4.52104E+07-1.06700E+05-2.65948E+06-6.75902E+06
 -1      1348-1.56800E+05-8.35100E+05-4.39224E+07 2.37615E+05-1.12786E+06-7.93428E+06
 -1      1349-1.65179E+05 1.24652E+04-3.58411E+07-1.86541E+05-1.86618E+06-4.69414E+06
 -1      1350-2.19332E+05 3.88572E+05-2.91712E+07 2.02341E+05-1.67090E+06-4.56757E+06
 -1      1351 3.82853E+05 3.17651E+05-4.22978E+07 1.69588E+05-2.25917E+06-4.65693E+06
 -1      1352 2.85854E+05-2.09251E+05-4.79707E+07-4.22264E+05-1.94401E+06-5.01935E+06
 -1      1353 3.04015E+05 3.77414E+05-3.87151E+07-4.63637E+03-2.37520E+06-3.77687E+06
 -1      1354-6.60775E+05 1.62966E+05-2.36260E+07 1.58330E+05-1.05653E+06-6.13019E+06
 -1      1355-1.91092E+05 6.99367E+05-2.64065E+07-2.71534E+05-4.89834E+05-6.67112E+06
 -1      1356-7.92392E+05 2.67376E+05-4.31216E+07 7.44090E+05-1.47276E+06-8.18573E+06
 -1      1357-1.11096E+06-5.51323E+04-3.44779E+07-1.07354E+05-1.28840E+06-7.77575E+06
 -1      1358-4.10342E+05 5.27185E+05-3.83904E+07-6.53333E+05-1.06781E+06-8.53877E+06
 -1      1359-4.15137E+05 1.99926E+05-2.33944E+07-2.52348E+05-1.49705E+06-6.76246E+06
 -1      1360-1.69317E+05 3.11426E+05-1.90240E+07-3.29606E+05-1.14194E+06-5.11381E+06
 -1      1361-4.37556E+05 1.44878E+05-1.53469E+07-5.74424E+05-7.39187E+05-5.35184E+06
 -1      1362-2.85414E+05-1.56150E+05-2.26196E+07 2.00368E+04-1.70841E+06-4.55485E+06
 -1      1363 2.92560E+04-5.33254E+05-2.55748E+07-1.27995E+05-1.62565E+06-3.73613E+06
 -1      1364-3.60891E+07 1.37683E+06-4.54273E+08-2.45738E+05-4.89366E+06 8.12230E+06
 -1      1365-2.24695E+07 3.23797E+06-3.82814E+08 1.54042E+04-8.78641E+05 9.37882E+06
 -1      1366-2.62591E+07 6.84859E+04-4.09645E+08-1.40207E+06-4.93865E+06 1.06910E+06
 -1      1367-4.87198E+07 2.82297E+05-4.98585E+08-1.27526E+06-7.70809E+06 1.01012E+07
 -1      1368-5.23175E+07 1.00492E+06-4.81821E+08-2.54716E+05-8.15864E+06 2.19598E+07
 -1      1369-2.28482E+07 6.38059E+05-4.23294E+08-1.16921E+06-3.94722E+06-4.92939E+06
 -1      1370-1.53592E+07 2.43253E+06-3.54327E+08 1.00986E+05-7.00498E+06-4.74381E+06
 -1      1371-3.90735E+07 3.22585E+05-5.24142E+08-1.65490E+06-7.79164E+06-7.39519E+06
 -1      1372-2.89766E+07 1.24953E+06-4.74821E+08-7.21094E+04-6.98523E+06-7.18350E+06
 -1      1373-3.20006E+07 1.35534E+04-5.22805E+08 5.30256E+05-6.82006E+06-1.27995E+07
 -1      1374-4.98256E+07 5.49454E+06-5.78558E+08-7.36404E+05-8.75720E+06-1.05818E+07
 -1      1375-5.16124E+07-1.33080E+06-5.37699E+08 8.47966E+05-8.42466E+06-1.33741E+06
 -1      1376-2.12874E+07-5.27311E+05-4.31134E+08-7.12861E+05-5.52198E+06-9.44363E+06
 -1      1377-7.08910E+07-2.47732E+05-5.62978E+08 1.00903E+05-8.56829E+06 7.17105E+06
 -1      1378-2.46718E+07 4.47804E+06-3.73068E+08-1.32441E+06-3.31306E+06 1.53484E+07
 -1      1379-4.24028E+07 5.00443E+06-4.24545E+08 9.23507E+05-4.40769E+06 2.68670E+07
 -1      1380-5.78448E+07-5.46953E+04-4.72332E+08-7.51973E+05-3.34817E+06 3.26789E+07
 -1      1381-1.46293E+07-2.83461E+05-3.29018E+08 1.50901E+06-1.67526E+06-8.36525E+06
 -1      1382-1.30725E+06 3.75422E+05-7.03830E+07 4.21838E+05-3.09572E+06-1.04222E+07
 -1      1383 1.92978E+04 7.17690E+05-5.42955E+07-4.54028E+05-2.43419E+06-9.65746E+06
 -1      1384-5.78846E+05 6.33402E+05-4.48761E+07-7.16062E+05-1.41879E+06-9.56167E+06
 -1      1385-1.63560E+06-3.02933E+05-4.39723E+07 3.04235E+05-1.92269E+06-9.06398E+06
 -1      1386-4.38492E+05 5.51254E+04-3.12729E+07-4.22492E+05-1.13313E+06-7.74642E+06
 -1      1387 6.66522E+05 3.72810E+05-5.34142E+07-5.94832E+04-2.31377E+06-4.25871E+06
 -1      1388-7.58892E+05 7.56794E+05-9.57832E+07-2.32529E+05-3.53661E+06-1.09694E+07
 -1      1389 6.85600E+05 1.76418E+06-8.12929E+07-1.55748E+05-2.93965E+06-1.05479E+07
 -1      1390-7.58028E+05-8.26194E+05-1.08398E+08 9.56205E+05-3.25992E+06-1.11735E+07
 -1      1391-8.30562E+03 9.58273E+05-9.89320E+07-3.28482E+05-2.38145E+06-1.16029E+07
 -1      1392-1.71015E+05 1.15654E+05-1.16826E+08-3.45980E+05-2.18234E+06-9.14155E+06
 -1      1393-6.16045E+05 1.12321E+06-7.10310E+07-5.76474E+05-2.02952E+06-1.16114E+07
 -1      1394-8.47310E+05-5.53611E+05-1.02446E+08-1.08476E+05-3.63794E+06-1.24837E+07
 -1      1395-2.42373E+05 3.57791E+05-8.53906E+07-5.24087E+05-1.92737E+06-1.22082E+07
 -1      1396-1.08968E+06 6.86607E+05-7.20526E+07-5.77096E+04-1.76718E+06-1.14256E+07
 -1      1397-9.91254E+05 6.38443E+05-7.15572E+07 1.74793E+04-2.93787E+06-1.18610E+07
 -1      1398 1.32662E+05 1.07124E+05-5.64582E+07-7.98892E+05-1.13701E+06-1.06058E+07
 -1      1399 1.25377E+06 8.48947E+05-2.93536E+08-4.89626E+05-6.44390E+06-9.17679E+06
 -1      1400-1.64551E+06 1.09927E+06-2.86298E+08-5.94222E+05-4.33754E+06-1.22759E+07
 -1      1401-1.03202E+06-1.07326E+05-2.65477E+08-3.72408E+04-4.39754E+06-1.23584E+07
 -1      1402-1.04029E+06 5.74288E+05-2.85263E+08 2.71421E+05-4.66269E+06-5.69059E+06
 -1      1403-1.52415E+06 2.42321E+05-3.01578E+08-6.03044E+05-4.49328E+06-5.94643E+06
 -1      1404 9.63573E+05 6.16566E+05-3.07970E+08 4.23195E+05-5.77815E+06-2.17211E+06
 -1      1405-9.98756E+05-6.22061E+05-1.32249E+08-1.60424E+05-2.56416E+06-1.29621E+07
 -1      1406-1.19868E+06-1.21437E+06-1.20634E+08-8.64156E+04-1.94174E+06-1.31399E+07
 -1      1407-9.12404E+05-1.10942E+05-1.30075E+08-8.82297E+05-4.25802E+06-1.13798E+07
 -1      1408 6.74135E+04 7.05445E+05-1.53540E+08-4.10814E+05-4.07625E+06-1.20808E+07
 -1      1409-9.54324E+04 6.67367E+05-1.40599E+08-3.23887E+05-2.78516E+06-1.42534E+07
 -1      1410-1.14302E+05-3.17059E+05-1.41504E+08-8.48451E+05-3.40349E+06-9.47472E+06
 -1      1411-1.36706E+06-6.54090E+05-1.28093E+08 4.13685E+05-3.20013E+06-9.16691E+06
 -1      1412 2.60773E+05 6.79513E+05-1.53725E+08-1.53048E+05-2.69432E+06-9.79968E+06
 -1      1413 3.01187E+05 1.35726E+06-1.60578E+08-8.40242E+05-3.35532E+06-1.04956E+07
 -1      1414 3.16017E+05 3.92380E+05-1.47669E+08-1.14105E+06-4.48099E+06-7.41488E+06
 -1      1415-1.04400E+06 6.45594E+05-1.03604E+08 2.60202E+05-3.09623E+06-1.34213E+07
 -1      1416-4.85027E+05 1.85041E+06-1.42772E+08 1.02510E+05-4.67480E+06-1.47022E+07
 -1      1417-9.01503E+05-1.29687E+06-1.22024E+08-5.86160E+05-2.72045E+06-1.39943E+07
 -1      1418-1.56092E+06 3.28593E+05-1.02510E+08-1.51076E+05-2.40010E+06-1.37882E+07
 -1      1419-6.48198E+05 2.80077E+05-1.01830E+08 3.26704E+04-3.73503E+06-1.41662E+07
 -1      1420-1.16021E+05 6.07463E+04-8.37568E+07-9.02296E+05-1.39049E+06-1.30179E+07
 -1      1421 1.31172E+06 8.80775E+05-1.25445E+08 1.10146E+05-3.62410E+06-6.65741E+06
 -1      1422-6.29762E+06-1.19609E+06-3.54526E+08 1.91551E+06-5.95427E+06-1.80160E+07
 -1      1423-1.43556E+06 1.13990E+06-1.84158E+08 6.35276E+05-4.40904E+06-1.52452E+07
 -1      1424 4.03810E+05-1.31291E+05-1.61520E+08-2.31740E+05-2.85545E+06-1.40278E+07
 -1      1425 1.22561E+06 1.81162E+06-1.75821E+08-9.57025E+05-3.48729E+06-1.26490E+07
 -1      1426-6.25061E+05-1.19730E+06-2.04495E+08 1.46111E+06-4.03728E+06-1.47199E+07
 -1      1427-1.26485E+05 1.72498E+06-1.86182E+08-3.01110E+05-2.69275E+06-1.59338E+07
 -1      1428-1.11347E+06 6.05768E+05-1.92744E+08-1.30833E+05-3.12316E+06-1.09173E+07
 -1      1429-9.57894E+05 4.09840E+05-1.77149E+08 4.77374E+05-3.49886E+06-1.06624E+07
 -1      1430-5.22349E+05-2.42050E+05-2.05675E+08 9.37078E+05-3.23539E+06-1.16174E+07
 -1      1431-2.52657E+05 2.78680E+05-2.14624E+08-3.85180E+05-3.14628E+06-1.21475E+07
 -1      1432 1.02959E+06 1.66385E+06-1.98537E+08 1.53280E+05-4.85976E+06-8.51610E+06
 -1      1433-1.65465E+06 5.70227E+05-1.42137E+08 1.16465E+05-3.19935E+06-1.52164E+07
 -1      1434-2.95780E+05-2.61126E+05-1.62705E+08-6.67492E+05-2.30307E+06-1.62070E+07
 -1      1435-9.81118E+05 9.69635E+05-1.37317E+08 1.38486E+05-2.65280E+06-1.54273E+07
 -1      1436-3.84122E+05 2.25465E+05-1.38006E+08 5.23198E+04-4.61376E+06-1.62069E+07
 -1      1437 3.14106E+05-2.61114E+05-1.15534E+08-9.62583E+05-1.55728E+06-1.50002E+07
 -1      1438 5.70125E+04 2.46035E+05-1.73070E+08-2.07540E+05-4.48564E+06-7.99818E+06
 -1      1439-1.60647E+06 1.77638E+06-2.52928E+08-5.94841E+05-3.19054E+06-1.76175E+07
 -1      1440-2.67196E+06-7.98300E+05-2.61972E+08-1.31865E+06-5.36909E+06-1.86173E+07
 -1      1441-5.54947E+06 5.17679E+05-3.02863E+08 1.03866E+06-2.15765E+06-1.91144E+07
 -1      1442-4.90930E+06 2.06238E+06-2.59433E+08 2.33201E+05-1.61988E+06-1.44338E+07
 -1      1443-4.78108E+06 7.08030E+05-3.45086E+08-1.77901E+06-4.84921E+06-1.86078E+07
 -1      1444-7.37171E+06-5.86788E+05-3.41201E+08 1.44668E+05-3.44528E+06-1.83837E+07
 -1      1445-2.83595E+06 4.59770E+06-2.75650E+08-3.08712E+05-3.09362E+05-1.44545E+07
 -1      1446-1.05717E+07 2.76220E+05-3.83176E+08 3.85950E+05-4.27023E+06-1.74453E+07
 -1      1447-6.28074E+06 2.05900E+06-3.37744E+08-9.67873E+05-2.20800E+06-1.69252E+07
 -1      1448-8.32812E+06 1.90879E+06-3.24301E+08-1.18553E+06-4.09272E+06-1.37141E+07
 -1      1449-2.62111E+06-4.95437E+06-2.26041E+08-7.23606E+05-2.25645E+06-1.69601E+07
 -1      1450-6.54668E+06 1.70485E+06-3.89217E+08-9.53929E+05-6.97250E+06-1.73913E+07
 -1      1451-8.22597E+05-4.01813E+05-2.46951E+08-1.06920E+06-4.48180E+06-1.24886E+07
 -1      1452-2.51496E+06-1.00106E+06-2.29054E+08 5.28599E+05-4.09329E+06-1.23055E+07
 -1      1453 2.76249E+05 4.41080E+05-2.57786E+08-1.55989E+06-6.20819E+06-9.54328E+06
 -1      1454 1.70488E+06 1.53865E+06-2.27293E+08 1.86760E+04-4.64124E+06-8.90269E+06
 -1      1455-5.65849E+06 9.96505E+05-4.19295E+08-7.61547E+05-6.71933E+06-1.50238E+07
 -1      1456-1.06564E+07-2.75513E+05-4.22610E+08 5.40680E+05-7.51652E+06-1.59350E+07
 -1      1457-6.27948E+06-1.33108E+05-4.41889E+08-6.09527E+05-5.90375E+06-1.14135E+07
 -1      1458 2.75834E+05 4.42109E+04-2.88240E+06 3.65003E+04-2.33011E+05 1.07677E+05
 -1      1459 3.10169E+05 1.56453E+05-4.35637E+06 9.70494E+04-5.22628E+05 3.52886E+05
 -1      1460 4.51545E+05-9.14210E+03-6.70197E+06-1.24023E+05-3.24656E+05 3.16341E+05
 -1      1461 2.96479E+05-3.62815E+03-2.85151E+06-3.31452E+02-4.58937E+05-2.95733E+05
 -1      1462-1.51848E+07-2.43303E+05-4.19936E+08-1.85393E+05-6.16258E+06-1.55870E+07
 -1      1463-9.81500E+06 2.17561E+06-4.16265E+08-4.08974E+05-7.63624E+06-1.66823E+07
 -1      1464-1.91232E+07 9.77073E+05-4.63433E+08 4.62603E+05-6.01959E+06-1.47820E+07
 -1      1465-1.70264E+07-4.47095E+05-4.27358E+08-5.90952E+05-4.70203E+06-1.31990E+07
 -1      1466-1.21921E+07-1.12176E+05-4.53045E+08-3.39657E+05-6.30161E+06-1.57158E+07
 -1      1467-1.75493E+07 1.67610E+06-4.87820E+08-2.99638E+04-7.61438E+06-1.52148E+07
 -1      1468-2.47823E+07 1.08203E+06-5.02130E+08-1.17874E+05-7.66529E+06-1.40516E+07
 -1      1469-1.61141E+07 2.62776E+05-4.82618E+08 3.34323E+05-8.01209E+06-1.49662E+07
 -1      1470-1.05545E+07 9.18876E+05-4.76007E+08-3.42075E+05-8.65166E+06-1.43046E+07
 -1      1471-1.95693E+07 1.21848E+06-5.19416E+08-2.43556E+04-6.47750E+06-1.54799E+07
 -1      1472-1.22026E+07 1.33768E+06-3.79016E+08 3.78957E+05-5.88495E+06-1.24924E+07
 -1      1473-5.88326E+05-1.20221E+06-1.29638E+08 6.13537E+05-1.94977E+06-1.32087E+07
 -1      1474-9.10349E+05-5.78146E+05-1.33275E+08 2.54700E+05-2.84715E+06-1.37389E+07
 -1      1475-2.60538E+07 5.55317E+06-5.40453E+08 4.07268E+05-7.42591E+06-1.59831E+07
 -1      1476-4.72579E+07-1.75768E+05-6.08760E+08 8.54779E+05-1.20481E+07-1.82744E+07
 -1      1477-3.38395E+07-1.50885E+05-5.91948E+08 2.06005E+06-9.54229E+06-1.85309E+07
 -1      1478-3.99663E+07 2.98164E+05-6.27332E+08 6.17203E+05-7.94138E+06-2.49614E+07
 -1      1479-6.48769E+07 2.08575E+06-6.26494E+08 1.52441E+06-1.12903E+07-1.57983E+07
 -1      1480-2.75433E+07 1.89210E+06-5.62386E+08 3.92569E+05-6.67104E+06-1.61531E+07
 -1      1481-2.22500E+07-9.40790E+05-5.77889E+08 2.22850E+06-7.56379E+06-1.77484E+07
 -1      1482-2.11578E+07 3.34259E+05-5.43908E+08 9.89467E+05-7.95186E+06-1.57722E+07
 -1      1483-3.86563E+05 5.17469E+05-2.65696E+08-5.74062E+05-4.14292E+06-6.30926E+06
 -1      1484 1.47373E+06 7.47467E+05-2.70078E+08-4.60189E+05-5.22625E+06-2.83009E+06
 -1      1485-9.09505E+05-5.99604E+05-2.50264E+08 1.08067E+05-3.83186E+06-5.93734E+06
 -1      1486-1.63059E+06-1.63668E+05-2.75715E+08-8.64562E+05-3.59992E+06 1.75711E+06
 -1      1487-2.06636E+06 4.08028E+06-2.88709E+08 7.83774E+05-3.09359E+06 1.30278E+06
 -1      1488-2.15889E+06-7.61762E+05-2.58598E+08 5.61698E+05-4.12850E+06-3.76778E+04
 -1      1489-4.27690E+05 5.03552E+06-3.10849E+08-6.29644E+05-7.31219E+05 2.69246E+06
 -1      1490-7.84756E+05 4.08215E+05-9.98690E+07 3.47654E+05-2.71571E+06-1.27809E+07
 -1      1491-5.91178E+05-4.40838E+05-7.07072E+07 3.38136E+05-2.10393E+06-1.08649E+07
 -1      1492-1.39716E+07-3.40421E+06-5.15916E+08 6.96616E+05-7.61884E+06-5.14004E+06
 -1      1493-5.43870E+06 2.21808E+06-5.38999E+08-4.49868E+05-6.80826E+06-8.90116E+06
 -1      1494-5.70702E+06 4.54678E+06-5.03689E+08-4.71086E+05-4.61886E+06-4.63642E+06
 -1      1495-1.37462E+07-8.72470E+05-5.36443E+08-4.96641E+05-5.62654E+06-1.04354E+07
 -1      1496-1.41432E+07-6.96132E+05-5.57560E+08 2.28781E+06-7.40481E+06-1.36355E+07
 -1      1497-6.52890E+06 1.89361E+06-4.98541E+08-3.76228E+05-6.53192E+06-7.32369E+06
 -1      1498-7.39157E+06 2.48847E+06-4.76584E+08 2.61755E+06-6.42264E+06-4.74736E+06
 -1      1499-8.58650E+06 1.36899E+06-4.92407E+08-1.37724E+06-7.37797E+06-1.19008E+07
 -1      1500-1.12728E+07 2.06068E+06-5.17507E+08 1.69672E+05-7.18472E+06-1.11133E+07
 -1      1501-1.52315E+07 3.31165E+06-5.28350E+08 2.81485E+05-8.87795E+06-1.40757E+07
 -1      1502-1.56539E+07 2.44528E+05-5.79263E+08-5.87363E+05-6.14907E+06-1.61314E+07
 -1      1503-7.71064E+06 5.10064E+06-5.68423E+08 1.98607E+06-6.43754E+06-1.06798E+07
 -1      1504-2.01472E+07 5.18649E+05-6.04395E+08 2.13623E+06-6.22167E+06-1.99184E+07
 -1      1505 4.98316E+05-5.48373E+04-4.91851E+07 2.05083E+05-1.59744E+06-3.06871E+06
 -1      1506 2.01552E+05-1.23102E+05-5.76591E+07-2.61391E+05-1.68281E+06-2.87845E+06
 -1      1507 2.22109E+05 2.43258E+05-4.29206E+07-3.49096E+05-1.54889E+06-2.40938E+06
 -1      1508 3.69481E+05 6.65197E+04-4.57567E+07-1.34746E+05-2.35675E+06-1.32280E+06
 -1      1509 3.04608E+05 1.32500E+05-3.54054E+07 5.55434E+05-1.95327E+06-2.35135E+06
 -1      1510-1.50620E+05 8.34870E+04-6.03810E+07-4.70977E+05-2.44780E+06-1.41419E+06
 -1      1511 4.00533E+05-6.06388E+04-4.59593E+07 1.47044E+04-1.70873E+06 4.54882E+05
 -1      1512 8.48688E+05-1.44832E+04-5.37478E+07 9.42059E+04-2.14053E+06-7.75271E+04
 -1      1513 8.46496E+05 2.76716E+05-6.00467E+07-1.20385E+05-2.14565E+06 1.63513E+05
 -1      1514-7.49560E+05 8.67277E+05-4.70754E+07 3.88390E+05-2.66996E+06-9.21838E+06
 -1      1515-8.72876E+05 2.49957E+05-2.40563E+07-6.07835E+05-1.73424E+06-6.83581E+06
 -1      1516-3.06811E+06 1.32997E+05-4.58062E+08-1.46931E+05-7.13556E+06-5.50237E+06
 -1      1517-3.48561E+05 1.37835E+06-4.51047E+08 1.72181E+06-5.52438E+06-2.74885E+06
 -1      1518-7.12973E+06-3.86614E+06-4.28594E+08-1.07126E+06-6.33444E+06 2.22824E+05
 -1      1519-6.51056E+05 4.26428E+05-2.14469E+07-1.25803E+05-7.67480E+05-6.80521E+06
 -1      1520-7.49899E+05 8.01696E+05-1.75972E+07-8.34206E+05-6.70186E+05-6.19380E+06
 -1      1521-1.19504E+06-7.34785E+05-1.28337E+07 2.09865E+05-9.10750E+05-4.94324E+06
 -1      1522-6.10502E+05-5.24553E+05-4.33466E+06-1.55384E+05-4.32319E+05-3.50704E+06
 -1      1523-6.08594E+05-2.45121E+05-7.22732E+06-4.60120E+04 2.59518E+05-3.83719E+06
 -1      1524-1.02168E+06-6.73353E+05-1.20522E+07-2.60068E+05-1.24532E+06-5.45411E+06
 -1      1525-3.66260E+05-3.70953E+05-7.70434E+07-4.37734E+05-1.78757E+06 5.47037E+05
 -1      1526-2.12840E+05-6.10060E+04-8.38267E+07 5.74167E+05-2.14050E+06-1.15932E+05
 -1      1527-3.86707E+05-3.23025E+05-6.84459E+07-2.02664E+05-2.17450E+06 5.18032E+05
 -1      1528-1.84249E+05 4.33227E+05-9.48492E+07-6.08414E+05-2.13262E+06 7.68693E+05
 -1      1529-9.69437E+07 3.72352E+06-7.31518E+08 4.09459E+06-1.11097E+07-5.47997E+07
 -1      1530-1.25072E+08-2.50953E+06-7.35959E+08 3.98364E+06-2.02594E+07-3.37132E+07
 -1      1531-9.06041E+07 2.91524E+05-7.04757E+08 4.41003E+06-1.50890E+07-3.60294E+07
 -1      1532-6.34638E+07-1.83416E+06-7.21778E+08 5.30949E+06-9.19718E+06-5.81952E+07
 -1      1533-9.63592E+07 9.93443E+05-7.46899E+08 6.59894E+06-1.19785E+07-6.23060E+07
 -1      1534-8.00730E+07-2.65595E+05-6.69593E+08 6.73876E+04-1.16612E+07-2.36433E+07
 -1      1535-6.38998E+07-2.12010E+06-6.77128E+08 3.65518E+05-1.29480E+07-3.54358E+07
 -1      1536-4.34631E+07-2.09081E+05-6.45965E+08 1.96384E+06-1.15521E+07-2.85896E+07
 -1      1537-4.06278E+07 3.13176E+06-6.75658E+08-1.13488E+06-9.63935E+06-3.89239E+07
 -1      1538-4.91747E+07 2.49455E+06-6.93067E+08 3.99362E+06-9.74988E+06-4.66513E+07
 -1      1539-2.75633E+07 9.41396E+06-6.62922E+08 1.81652E+06-7.70522E+06-3.72525E+07
 -1      1540-3.75785E+07 1.08866E+06-6.91164E+08 1.13152E+06-1.74921E+06-6.02430E+07
 -1      1541-1.38963E+08 3.11674E+06-7.26273E+08-3.80908E+06-1.38892E+07-1.28749E+07
 -1      1542-1.59054E+08 1.71053E+06-7.67521E+08 3.02488E+06-1.70307E+07-2.66396E+07
 -1      1543-1.46363E+08 1.41426E+05-7.84677E+08 9.95291E+06-1.92934E+07-6.24262E+07
 -1      1544-1.20583E+08-3.49719E+06-7.58303E+08 6.26098E+06-7.43638E+06-7.71506E+07
 -1      1545-1.75934E+08 9.41377E+05-8.08817E+08 1.01447E+07-2.53103E+07-3.55556E+07
 -1      1546-8.77622E+07 8.10631E+05-6.45830E+08-6.29260E+05-1.20905E+07-9.87276E+06
 -1      1547-1.17439E+08 1.74839E+06-6.75869E+08 1.05172E+06-1.56842E+07-2.41328E+06
 -1      1548-8.71606E+07 6.06831E+06-6.15016E+08-1.17214E+06-9.29389E+06 2.32148E+06
 -1      1549-1.46693E+08 7.47486E+06-7.06192E+08-1.48457E+06-1.28395E+07 6.70117E+06
 -1      1550-6.96331E+05-4.02194E+04-1.18978E+08 5.54148E+05-3.14176E+06-4.81759E+06
 -1      1551 3.59329E+05-3.75272E+04-1.30067E+08-1.22104E+05-2.65441E+06-4.21129E+06
 -1      1552 1.05140E+06 5.41707E+05-1.10350E+08-4.33503E+05-3.63654E+06-2.10502E+06
 -1      1553 1.27612E+06 1.52130E+06-1.31526E+08-5.39604E+05-3.48933E+06-2.38647E+06
 -1      1554-1.11561E+05-4.80517E+04-1.41324E+08-8.53929E+04-2.88964E+06-4.44624E+06
 -1      1555-1.14940E+05-8.23249E+04-1.14516E+08-6.03689E+05-2.54483E+06 8.42637E+05
 -1      1556-5.03074E+05-1.81617E+05-1.25127E+08 4.51245E+05-2.68264E+06 2.64413E+05
 -1      1557-8.43411E+05-3.77014E+05-1.04720E+08 5.89861E+05-2.77046E+06 4.28352E+05
 -1      1558-3.62565E+05-2.36277E+05-1.36134E+08-6.08316E+05-2.55837E+06 8.47842E+05
 -1      1559-3.32934E+05 2.10342E+05-1.52337E+08-5.70417E+05-3.21800E+06-5.04121E+06
 -1      1560-4.68303E+06 6.96219E+04-3.93351E+08 1.75331E+06-7.14205E+06 9.06353E+05
 -1      1561-4.51761E+05 1.81765E+06-4.16175E+08-6.60390E+05-6.37975E+06-2.95402E+06
 -1      1562-6.50772E+05 3.19230E+06-4.15984E+08-2.20730E+06-4.75521E+06 2.49013E+06
 -1      1563-4.25192E+06-6.17655E+05-4.34391E+08 4.84673E+05-5.83254E+06-7.11108E+06
 -1      1564-4.01473E+06-3.31643E+06-3.23667E+08 1.08162E+06-5.96564E+06 9.34628E+05
 -1      1565-2.65857E+07 4.15537E+06-6.22387E+08 2.75685E+06-7.43409E+06-2.48403E+07
 -1      1566-1.93721E+07-1.04456E+06-6.20622E+08 1.16442E+06-2.61540E+06-2.37583E+07
 -1      1567 5.69379E+04-2.27748E+05-1.65662E+08 9.72262E+05-3.82965E+06-5.68182E+06
 -1      1568 4.39852E+05 5.93940E+05-1.78797E+08-3.36133E+05-3.98824E+06-5.25792E+06
 -1      1569 1.43506E+06 4.28281E+05-1.56084E+08-1.72051E+05-4.37939E+06-2.40746E+06
 -1      1570 1.64455E+06 1.02540E+06-1.80576E+08-3.89610E+05-4.09430E+06-2.28176E+06
 -1      1571-9.74604E+05 3.39407E+05-1.93010E+08 5.32632E+05-4.05645E+06-5.49698E+06
 -1      1572-9.64813E+05-1.49431E+05-1.60872E+08-7.00208E+05-2.79123E+06 1.09952E+06
 -1      1573-9.57498E+05-2.41100E+05-1.70380E+08 7.61438E+05-2.82151E+06-4.39467E+05
 -1      1574-7.64358E+05-4.30179E+05-1.47622E+08 3.83769E+05-3.21995E+06 1.13146E+05
 -1      1575-7.43815E+05 1.03128E+06-1.87201E+08-1.12038E+06-2.94552E+06 1.06328E+06
 -1      1576-6.21075E+05 4.43009E+05-2.04514E+08-5.61607E+05-3.21431E+06-5.57436E+06
 -1      1577-1.37590E+06 1.40773E+05-2.20437E+08 7.50013E+05-4.23299E+06-6.66490E+06
 -1      1578 1.28854E+05 2.56654E+04-2.34391E+08-2.02763E+05-3.48867E+06-5.81698E+06
 -1      1579 1.38115E+06 9.20389E+05-2.08640E+08-6.41904E+05-5.06778E+06-2.97313E+06
 -1      1580 1.47295E+06 2.21750E+06-2.37536E+08-7.13611E+05-4.65105E+06-3.25897E+06
 -1      1581-7.87489E+05-6.55344E+04-2.13924E+08-9.03901E+05-3.71567E+06 1.23357E+06
 -1      1582-1.49592E+06-2.60486E+05-2.27955E+08 5.96374E+05-3.68495E+06 8.07047E+03
 -1      1583-1.90251E+06-8.21764E+05-2.00729E+08 8.42775E+05-4.24728E+06 2.67789E+05
 -1      1584-1.39940E+06-4.69593E+05-2.43329E+08-9.16754E+05-3.44870E+06 1.19062E+06
 -1      1585-9.54787E+07 4.60503E+06-5.88166E+08 1.25321E+06-8.99399E+06 2.26367E+07
 -1      1586-8.88362E+07 1.03665E+06-5.44001E+08-6.47257E+06-4.90709E+06 3.39525E+07
 -1      1587-7.44938E+07-1.50482E+06-4.85030E+08-3.48073E+06-3.99454E+06 4.41292E+07
 -1      1588-1.18521E+08 3.54318E+04-6.12920E+08-2.87539E+06-7.09779E+06 3.22958E+07
 -1      1589-1.30461E+08-2.99427E+06-5.28986E+08-4.16820E+06 1.02516E+05 5.35905E+07
 -1      1590-1.48390E+08-3.56258E+06-6.26351E+08-1.28866E+06-1.03958E+07 4.25397E+07
 -1      1591-1.53550E+08 4.79885E+06-6.67834E+08-6.38987E+06-9.88510E+06 2.55003E+07
 -1      1592-5.86014E+06-8.05117E+05-4.55149E+08-4.03717E+05-5.78009E+06-9.43096E+06
 -1      1593-8.90335E+06 7.46657E+05-4.67697E+08 1.64351E+06-7.90675E+06-1.16074E+07
 -1      1594 8.12436E+04-3.14947E+05-2.11116E+07 2.60330E+05-1.52437E+06-2.66287E+06
 -1      1595 6.64159E+05 2.40689E+05-1.76228E+07 8.71733E+04-1.18768E+06-1.88552E+06
 -1      1596 2.82846E+04-3.26335E+05-2.82081E+07-4.95564E+05-1.45732E+06-2.47316E+06
 -1      1597 2.72845E+05 2.63920E+04-3.17328E+06 2.20584E+03-4.40556E+05-8.73128E+05
 -1      1598 4.02295E+05-2.04069E+04-5.16470E+06-7.23845E+04-6.42051E+05-7.55661E+05
 -1      1599-2.53188E+07 8.67675E+06-6.32387E+08 3.76403E+06-1.36824E+06-2.50614E+07
 -1      1600-1.35637E+05 2.64262E+04-1.50847E+07 2.23914E+05-1.18946E+06-1.35448E+06
 -1      1601 5.76536E+05 4.65131E+04-1.94732E+07-1.50512E+05-1.06524E+06-8.65395E+05
 -1      1602 4.23222E+05 4.29457E+05-1.88719E+07 1.23634E+05-9.18712E+05 2.56795E+05
 -1      1603 4.89382E+05 1.59060E+05-2.25582E+07-3.88623E+04-1.12989E+06-7.09551E+04
 -1      1604 4.49948E+05-4.98636E+04-3.09102E+07-1.25873E+05-1.78587E+06-1.14787E+06
 -1      1605 1.20537E+05-6.04035E+05-2.71853E+07 3.59867E+05-1.01042E+06-3.25394E+05
 -1      1606 7.70092E+05 4.88465E+05-3.40356E+07-1.68799E+05-1.33427E+06 1.37296E+05
 -1      1607 4.52403E+05 3.24727E+04-2.53754E+07-1.86354E+05-1.14302E+06 7.87557E+05
 -1      1608 3.46467E+05 1.32521E+05-1.05922E+07-1.58713E+05-8.72041E+05-1.37180E+06
 -1      1609 6.70467E+05 3.36025E+05-1.31432E+07 1.76788E+05-1.15919E+06-5.85257E+05
 -1      1610 3.91933E+05-1.62481E+04-7.54734E+06-3.80655E+03-7.28163E+05-1.03311E+06
 -1      1611 3.97514E+05 2.63634E+05-1.24558E+07 6.98849E+04-5.62195E+05 1.83320E+05
 -1      1612 2.18985E+05 7.88749E+04-1.63797E+07 2.37086E+04-8.86617E+05 1.09485E+05
 -1      1613 2.46350E+05 3.10803E+04-7.33791E+06 1.38378E+05-7.78657E+05-4.02476E+05
 -1      1614 2.93686E+05 1.18969E+04-9.28897E+06-1.10448E+05-6.10303E+05 2.36999E+05
 -1      1615 5.09023E+05-2.03549E+05-6.14649E+07-2.68812E+05-1.58039E+06 2.17426E+06
 -1      1616 7.14546E+04 1.86330E+05-3.93447E+07 7.76327E+04-1.76552E+06 5.42386E+05
 -1      1617 6.10677E+05 3.82063E+05-3.27594E+07 3.30102E+05-8.87281E+05 1.11402E+06
 -1      1618 1.21112E+06 1.06467E+06-2.78883E+07 2.86624E+05-1.47295E+06 1.68162E+06
 -1      1619-4.21111E+06-6.32098E+06-1.66791E+07 4.86211E+05-1.17801E+07-1.93730E+06
 -1      1620 2.09004E+05-5.32419E+06 7.69030E+06 1.59768E+07-1.60584E+07 4.08754E+06
 -1      1621-5.17453E+06 1.79860E+06 1.32210E+07 1.03112E+07 1.97575E+07 6.76534E+06
 -1      1622-6.84546E+07-6.23844E+07-1.63019E+08 2.03508E+07 5.59676E+07-3.26381E+06
 -1      1623-8.51788E+07-7.93600E+07-2.05958E+08-3.32179E+06 5.86516E+07 2.21038E+07
 -1      1624-2.27158E+07-2.27008E+07-5.29239E+07-6.70873E+04 3.82365E+07 7.47092E+05
 -1      1625 1.87846E+08 1.59824E+08 4.83813E+08 1.81353E+07 6.03898E+06 3.09161E+07
 -1      1626 8.73652E+07 8.80492E+07 2.07210E+08 6.17355E+05 2.22465E+07 4.05382E+07
 -1      1627-1.46688E+08-1.06534E+08-3.47896E+08-6.33441E+06 1.61710E+07-2.55469E+07
 -1      1628 2.11082E+08 1.65436E+08 5.29408E+08 1.29085E+07-2.24360E+07 1.08408E+07
 -1      1629 1.99888E+08 1.65315E+08 4.90352E+08-6.78039E+06-2.30170E+07 2.61845E+07
 -1      1630-1.94884E+08-1.86214E+08-4.54596E+08-4.21802E+05-5.22514E+07-1.44261E+07
 -1      1631 1.25794E+07 1.25880E+07 2.93470E+07 1.73557E+03-3.96002E+05 7.32776E+06
 -1      1632-1.76974E+08-1.76682E+08-4.13189E+08 6.18416E+04-1.74921E+07-2.15135E+07
 -1      1633 1.53783E+08 1.53506E+08 3.59233E+08-9.50002E+04-2.48846E+07-1.86326E+07
 -1      1634 2.21167E+08 1.94247E+08 5.32687E+08-5.30592E+06-4.81473E+07-1.30605E+07
 -1      1635-1.87883E+08-1.42479E+08-4.90585E+08-1.44583E+07-2.88014E+07 5.57118E+06
 -1      1636 8.10619E+06 1.83782E+07 5.18798E+07 2.69324E+06-3.63242E+07-2.27820E+06
 -1      1637-2.12117E+08-2.11931E+08-4.94807E+08-2.11778E+05-4.84663E+07-4.50868E+06
 -1      1638-7.74297E+07-7.74355E+07-1.80503E+08-1.56798E+04 1.72546E+07 5.75501E+06
 -1      1639 1.10775E+07 1.06185E+07 2.69146E+07-3.64429E+06-1.22530E+07-9.69886E+06
 -1      1640-1.49721E+08-1.15475E+08-3.71022E+08 3.52846E+06-5.69315E+06 8.57050E+06
 -1      1641-1.20464E+06-1.16906E+05 2.12974E+04-9.29295E+05-1.33908E+05-8.59572E+04
 -1      1642-1.11597E+06 1.50642E+04-2.32260E+05-3.41548E+05-1.98523E+05-1.13201E+04
 -1      1643-4.60110E+05 3.84195E+04 1.24029E+05 1.45715E+04-1.00643E+05-7.31317E+04
 -1      1644-7.91338E+04 5.14896E+04-4.82274E+04 9.58083E+02 2.29528E+04 1.09531E+04
 -1      1645-7.54256E+05 6.42401E+04 2.12668E+05-2.42493E+05 2.04188E+04-4.55697E+05
 -1      1646-4.18751E+05 1.07401E+05-1.19671E+05-6.91740E+05 5.98118E+04 2.10000E+05
 -1      1647-4.50732E+05-5.43870E+03-9.42126E+04-2.49409E+04-7.86165E+04-1.06329E+05
 -1      1648-8.40065E+05 5.06165E+04 2.24084E+05-4.96671E+04-5.73831E+04-6.66291E+03
 -1      1649-9.71833E+04 9.33679E+04 1.21913E+05 2.64294E+04-1.86375E+04 5.45290E+04
 -1      1650-1.24913E+06-4.60668E+04-1.78170E+05-2.93854E+05-1.26589E+05-1.88575E+04
 -1      1651-1.28050E+06 6.23669E+04 4.86749E+04-3.63286E+05-1.90372E+05 4.04264E+05
 -1      1652-7.39169E+05 7.62601E+04 1.90752E+05-2.27882E+05-6.62930E+04-2.12346E+04
 -1      1653-6.81881E+05-1.01953E+05 1.34372E+05-3.27361E+05-6.33412E+04-1.19495E+04
 -1      1654-2.41920E+05 7.88717E+04 1.25152E+05-5.27662E+04-1.12270E+05-7.63755E+04
 -1      1655-1.35806E+06-4.62821E+04 2.76797E+05-6.15886E+05 1.75595E+04 5.01456E+05
 -1      1656-6.47221E+05 5.82844E+04-8.77353E+04-6.19248E+05-1.53425E+05 5.70062E+05
 -1      1657-1.57890E+06 1.23729E+05-1.53492E+05-5.01008E+05-5.65894E+04 5.19460E+04
 -1      1658-1.31589E+06 9.04000E+04-7.02655E+04-7.46203E+05-1.67206E+05-3.70210E+05
 -1      1659-1.17099E+06 1.92355E+05 1.06266E+05-5.44166E+05-1.39353E+05-2.36729E+05
 -1      1660-1.41898E+06 1.61167E+05-2.18855E+05-6.48370E+05 4.92108E+04 6.32365E+04
 -1      1661-8.39794E+05 1.20467E+05-9.72651E+04-8.57344E+05 1.32945E+05-1.31339E+05
 -1      1662-1.69748E+06 5.36127E+04-7.78099E+04-7.54194E+05-4.58240E+04-6.93813E+05
 -1      1663-1.88579E+06-3.58576E+06-9.49528E+07-1.02695E+06 1.72205E+05-4.89305E+06
 -1      1664-2.89605E+06-5.54534E+06-1.52191E+07-4.17766E+05-1.50636E+06 6.29285E+06
 -1      1665 4.67230E+05 4.58189E+06-1.63545E+07-1.02323E+05-4.64506E+06 5.52718E+06
 -1      1666-1.33246E+06 8.93847E+05-8.86980E+07 1.13583E+06-1.31234E+06-4.40012E+06
 -1      1667-2.48637E+06-4.23605E+06-1.49459E+07 4.20537E+05-7.47689E+05 5.92030E+06
 -1      1668 8.72592E+05 3.24347E+06-1.86305E+07 1.00355E+05 5.99834E+05 5.85098E+06
 -1      1669-2.91661E+05-1.46619E+06-7.82276E+07-3.30885E+05-4.11314E+05-4.68258E+06
 -1      1670 1.01690E+05-2.28854E+05-2.99813E+06 3.81537E+04-5.83799E+05-9.24908E+05
 -1      1671 2.54362E+05 4.08817E+05-1.51284E+06-9.04795E+04-1.44750E+05 1.55774E+05
 -1      1672-3.03535E+05-8.32968E+05-1.02635E+06-2.33938E+05-8.64419E+05 1.67238E+06
 -1      1673-2.33096E+06-5.85060E+06-2.77241E+07-9.14351E+05-3.60504E+06 6.36103E+06
 -1      1674 1.31271E+06 5.07448E+06-3.12945E+07 1.61417E+05-3.82061E+06 6.65134E+06
 -1      1675-1.26312E+06-8.45740E+05-1.54677E+08-6.84671E+05 1.28149E+06-4.83668E+06
 -1      1676-1.78530E+06-1.73800E+06-1.41652E+07-1.44902E+06-4.12572E+06 4.90752E+06
 -1      1677 4.88802E+05 1.20703E+06-5.98274E+07 3.52185E+05 5.61090E+05-4.87612E+06
 -1      1678-2.38960E+05 1.04608E+06-1.63387E+07-2.31985E+05 1.50389E+05 4.57335E+06
 -1      1679-1.08919E+06-1.01484E+06-1.01015E+07-9.00778E+05-3.20480E+06 4.41422E+06
 -1      1680 3.69159E+05 2.51119E+05-4.35002E+07 3.61604E+05 3.59779E+05-4.06098E+06
 -1      1681 9.09566E+04 7.31119E+05-1.16232E+07-7.30806E+04-2.74407E+05 3.90713E+06
 -1      1682-7.69090E+05-1.49238E+05-3.91279E+06 4.78560E+04-2.39938E+05 1.47793E+06
 -1      1683-2.40012E+05-3.20731E+05-1.64381E+06 5.37335E+04-1.60888E+05 1.13080E+06
 -1      1684 7.18516E+05 1.00843E+06-3.80140E+07 1.38323E+06-3.03058E+06-4.23164E+06
 -1      1685-9.08257E+05-1.79042E+05-3.41079E+05-2.18090E+05-1.96495E+05-8.07614E+05
 -1      1686 5.96151E+05 1.64943E+06-7.31497E+07 5.33808E+05-3.00794E+06-5.24074E+06
 -1      1687-8.21225E+07 3.27569E+07-3.44643E+08-5.05234E+06-6.20102E+06 1.06922E+07
 -1      1688-1.78436E+06-4.57711E+05 9.58452E+06 3.21004E+05-6.15754E+06-4.30352E+06
 -1      1689-1.00165E+06-1.16765E+06 1.35734E+07 7.34375E+04-6.78840E+06-4.33409E+06
 -1      1690 2.59271E+05-8.94307E+05 4.90322E+06 3.72569E+05-6.29628E+06-5.12313E+06
 -1      1691-3.49095E+06-1.41447E+05-1.50073E+08 1.32578E+06-2.52818E+06-6.02181E+06
 -1      1692 1.14326E+06 9.77340E+05-5.31961E+07 6.30221E+05-2.77508E+06-5.32063E+06
 -1      1693 8.31639E+05-1.16104E+06 1.88717E+07 4.98281E+05-6.56419E+06-4.01295E+06
 -1      1694-2.30440E+05-3.81878E+05 1.87008E+07 1.17476E+05-5.54593E+06-3.15066E+06
 -1      1695-9.18923E+05-4.25149E+05 1.04166E+07 8.62896E+04-5.92386E+06-4.05295E+06
 -1      1696-1.25432E+08-1.98064E+07-4.26486E+08 1.32668E+07-2.54231E+07-1.65625E+07
 -1      1697-1.13476E+08 5.03146E+06-4.30146E+08 1.36033E+07-1.46030E+07-7.59896E+06
 -1      1698 1.02328E+08-1.44419E+06 4.48404E+08 2.54801E+07-2.07911E+07 1.78794E+07
 -1      1699-5.31457E+06-2.40237E+06 1.86821E+07 2.22216E+07-2.79329E+07 8.73614E+06
 -1      1700 6.65059E+05-5.78531E+06 3.41068E+07 1.93815E+07-2.28689E+07-6.08748E+06
 -1      1701-4.11382E+05-1.57123E+04 6.26304E+05 2.68492E+04-4.40367E+05-4.26899E+05
 -1      1702-5.08051E+05-1.08016E+05 6.85848E+05 8.84656E+03-5.28521E+05-4.88004E+05
 -1      1703-9.83299E+05-2.47388E+04 7.68168E+05-1.02271E+05-4.14787E+05-1.20389E+05
 -1      1704-7.45173E+05-5.99484E+04-4.58657E+05-1.26069E+05-2.05160E+05-4.68035E+05
 -1      1705-5.31472E+05 6.78125E+04-6.15169E+05-1.06903E+05-1.82653E+05-3.26425E+05
 -1      1706 5.35411E+05-1.01724E+06-3.48948E+06-2.18606E+05-5.63055E+06-6.00617E+06
 -1      1707-2.43910E+06-2.30608E+06-6.34627E+07 6.85562E+05-5.71213E+06-5.44828E+06
 -1      1708 4.98302E+05-1.76375E+05 5.51140E+06-1.29862E+06-6.91022E+06-2.43036E+06
 -1      1709-2.21100E+06-2.44070E+06-5.43465E+07-4.24355E+06-5.69469E+06-4.80050E+06
 -1      1710-1.08042E+05 5.51494E+03 6.32830E+06-2.34985E+04-3.10227E+06-1.83776E+06
 -1      1711 5.41409E+04-4.22496E+05 6.75070E+06 2.27842E+05-3.44579E+06-2.21401E+06
 -1      1712-9.86244E+05-4.40697E+05 3.02275E+06-5.17019E+04-3.40863E+06-2.34513E+06
 -1      1713-1.35098E+06 2.73159E+04 2.16397E+06 4.06860E+04-3.04515E+06-1.09529E+06
 -1      1714-8.09225E+05-1.78014E+05 3.23600E+06-4.81093E+04-2.80975E+06-1.44874E+06
 -1      1715-3.76372E+05-3.89420E+05 6.70657E+06-2.38166E+05-2.30937E+06-7.54330E+05
 -1      1716-3.40940E+05-9.40200E+04 2.23712E+06-1.48437E+05-2.72225E+06-1.16475E+06
 -1      1717-6.12006E+05 3.18209E+04 6.18853E+06-1.25822E+05-2.30543E+06-8.22826E+05
 -1      1718-3.66599E+05-4.15195E+05 2.45293E+07 1.48118E+05-5.78934E+06-5.86936E+05
 -1      1719-1.82781E+06-4.17391E+05 1.26741E+07-1.07790E+05-6.13970E+06-1.06250E+06
 -1      1720 3.54582E+05 1.91092E+05-1.68493E+07 3.22664E+03-1.78207E+05-2.55378E+06
 -1      1721-5.84892E+04 6.48963E+05-5.82784E+06-3.63262E+05-1.33275E+06 1.76322E+06
 -1      1722-7.67782E+05-1.27712E+06-1.66297E+06-8.01220E+05-1.30225E+06 3.60971E+06
 -1      1723 8.50660E+07-3.39886E+07 3.64266E+08-1.21499E+07-6.33201E+06-1.31888E+07
 -1      1724-3.14593E+05-1.74360E+05 1.14166E+07-2.74881E+05-4.61814E+06-3.06838E+06
 -1      1725 6.36794E+05-3.88969E+04 1.31532E+07 1.62602E+05-4.28868E+06-5.43196E+05
 -1      1726-6.35466E+05-3.41418E+05 7.44676E+06-2.06794E+05-4.54618E+06-1.01942E+06
 -1      1727-1.64941E+06-3.48682E+05 6.00930E+06 1.51593E+05-4.64182E+06-3.51658E+06
 -1      1728-2.27866E+05-5.04244E+05 3.48697E+06 4.66566E+04-2.63093E+06-2.05186E+06
 -1      1729-6.53708E+04 1.31889E+05 5.40745E+06-1.47329E+05-2.60540E+06-8.65631E+05
 -1      1730-8.02736E+05 1.39161E+05 1.15714E+06 1.36792E+05-2.86568E+06-1.03002E+06
 -1      1731-5.88654E+05-1.51247E+05-1.15019E+05-6.14810E+03-2.55927E+06-2.17682E+06
 -1      1732-9.25837E+05-4.98367E+05 1.17616E+07 1.81380E+05-7.21065E+06-4.74973E+06
 -1      1733-1.41733E+06-3.54218E+04 2.42583E+07 1.30268E+05-7.66560E+06-4.41988E+06
 -1      1734 5.08476E+05-1.04846E+06 4.27924E+07-1.52941E+05-7.75456E+06-1.75616E+06
 -1      1735 2.30781E+06 7.74757E+05 3.58861E+07 8.23185E+05-7.14679E+06-1.83990E+06
 -1      1736 9.39630E+07-3.57341E+07 4.71471E+08 1.70973E+07-2.56182E+07 8.49344E+06
 -1      1737-5.43202E+05 5.50662E+05 1.27573E+06 1.30984E+05-2.24154E+06-1.63321E+05
 -1      1738-9.09418E+05 4.36846E+05 4.15240E+05-4.73227E+04-2.15955E+06-6.66802E+04
 -1      1739-4.71250E+05-4.69205E+04 3.35444E+06-1.57248E+05-2.51989E+06-1.71644E+05
 -1      1740-8.48499E+05-6.86630E+04 1.26433E+07-8.21706E+02-5.42669E+06-3.24277E+06
 -1      1741-2.10850E+06 7.72779E+04 9.57582E+06 9.25518E+04-5.77787E+06-2.44137E+06
 -1      1742 9.99543E+05-3.64108E+06 2.88529E+07 5.35050E+06-2.22202E+07-8.26646E+06
 -1      1743 1.08652E+07-2.53669E+06 5.60809E+07-1.41849E+06-1.91912E+07-2.37415E+06
 -1      1744-8.06260E+05-6.17743E+05 4.98856E+07 4.20777E+06-1.76364E+07 3.98755E+06
 -1      1745-5.69224E+06 1.13234E+06 2.93933E+07 7.50174E+06-1.79904E+07-3.22547E+06
 -1      1746-5.84897E+05-9.95571E+05 1.82491E+07-1.09313E+05-6.88345E+06-2.55275E+06
 -1      1747 9.52988E+05 5.67190E+05 2.71047E+07 2.77690E+05-6.38732E+06-2.21919E+06
 -1      1748-1.78583E+05 2.23099E+06-5.48700E+06-4.33121E+05-4.21085E+06-3.63785E+06
 -1      1749 1.46794E+05 9.72232E+05 1.35011E+07-4.80739E+05-4.31040E+06-2.64098E+06
 -1      1750-8.50950E+05-2.42185E+05-8.54675E+06 1.05219E+05-4.19548E+06-3.92851E+06
 -1      1751 1.01933E+07-3.60164E+06 4.58481E+07 4.79732E+06-1.41817E+07-4.87894E+06
 -1      1752-3.70418E+06 5.22797E+04 5.87614E+06 4.77351E+06-1.00667E+07-1.72520E+06
 -1      1753-2.45866E+06-5.42192E+06-1.96015E+07 7.28356E+06-9.43533E+06-1.58971E+06
 -1      1754-1.02842E+05-1.66794E+04-7.02793E+04-2.65082E+03-3.93319E+04-4.61258E+03
 -1      1755-8.24084E+05-6.70089E+05 1.69307E+06-3.91081E+04-5.04797E+06-3.94902E+06
 -1      1756 2.48237E+05 9.12379E+05 1.40141E+07-5.49430E+05-4.89108E+06-3.36102E+06
 -1      1757-1.45003E+06 7.38536E+05 8.37263E+06 1.11072E+06-5.89319E+06-3.96091E+06
 -1      1758-1.33233E+06-9.82894E+05 2.31413E+07-2.47646E+04-7.54893E+06-3.95527E+05
 -1      1759 1.04809E+05-3.06528E+05-2.92944E+07 2.88238E+05-3.33821E+06-3.41699E+06
 -1      1760-1.79749E+06-1.15166E+05-3.99022E+07-2.12755E+06-5.31319E+06-4.75578E+06
 -1      1761-6.77525E+05-5.73521E+04 4.70874E+06-2.03712E+05-4.08876E+06-2.18790E+06
 -1      1762 2.24819E+05-2.18415E+05-1.58083E+07 1.39844E+05-2.68121E+06-2.62143E+06
 -1      1763 1.18551E+05 3.67993E+05 8.34162E+06-3.11042E+05-3.68315E+06-2.45799E+06
 -1      1764-9.78113E+05 5.63172E+05 4.04079E+06 6.13197E+05-4.34658E+06-2.91695E+06
 -1      1765-7.22755E+05 1.60258E+05-2.36822E+07-1.29358E+06-3.92451E+06-3.40769E+06
 -1      1766 2.69300E+05-8.94941E+04 4.02228E+07-3.40540E+05-5.63493E+06-1.69190E+06
 -1      1767-7.37438E+05 1.38200E+05 3.07511E+07-1.43537E+05-6.37674E+06-2.35572E+06
 -1      1768 1.37664E+06-4.05595E+06-2.94141E+07-7.56919E+04-6.40391E+06-5.16131E+06
 -1      1769-3.95797E+05-2.77309E+06-4.15467E+07 1.12698E+05-5.71070E+06-5.22349E+06
 -1      1770-2.91560E+05-7.92367E+04 7.30570E+06-4.71851E+05-5.77277E+06-3.95847E+06
 -1      1771-1.31951E+06 3.98932E+05-4.51830E+07 4.95624E+05-4.28600E+06-3.19075E+06
 -1      1772 1.39738E+06 1.59766E+06 1.94764E+07-1.13374E+06-6.85011E+06-4.17097E+06
 -1      1773-8.81012E+04 5.98023E+05-2.48758E+07 2.09827E+05-3.96084E+06-2.31789E+06
 -1      1774-8.19840E+05-1.06173E+04 2.90620E+05-4.12075E+05-2.90579E+05 1.10160E+06
 -1      1775 5.48933E+05-1.37762E+06 2.71351E+07-4.44599E+05-7.17437E+06-4.77686E+06
 -1      1776 4.95120E+06 3.96310E+06 4.41427E+07-1.88135E+06-3.18981E+07 3.40716E+06
 -1      1777 1.78974E+04 2.72779E+04 9.20234E+06 5.85525E+04-3.19707E+06-3.45530E+05
 -1      1778-9.38425E+05-1.77258E+05 3.08284E+06-1.60022E+05-3.27490E+06-3.39960E+05
 -1      1779-7.38037E+05-3.18962E+05-1.03526E+07-1.89965E+05-2.56618E+06-2.03656E+06
 -1      1780-6.07989E+04 5.03852E+05 2.46346E+06-9.86595E+04-2.46932E+06-2.16442E+06
 -1      1781 3.99240E+05 3.82450E+05-9.31948E+06-4.03589E+05-2.65364E+06-1.87185E+06
 -1      1782-4.16653E+05-7.26446E+01-5.88398E+05-9.78297E+03-8.70029E+05-7.21808E+05
 -1      1783-3.95312E+05 1.02656E+05 9.91673E+04 1.93442E+04-8.66981E+05-5.35134E+05
 -1      1784-2.59350E+05 4.87540E+05-8.99104E+04-3.79791E+04-9.54245E+05-4.93750E+05
 -1      1785-3.44743E+05 3.13963E+05-1.75253E+05-2.29129E+05-1.03992E+06-7.45168E+05
 -1      1786-2.37091E+05-3.71738E+05 1.95454E+06 7.81264E+03-1.18336E+06-6.86849E+05
 -1      1787-3.73171E+05-1.18769E+05 1.97977E+06 2.71536E+04-1.28372E+06-7.71853E+05
 -1      1788-3.33813E+05-5.25906E+05 3.17994E+06-4.10397E+05-5.20186E+06-5.19721E+06
 -1      1789-1.62772E+06 3.11947E+05-7.10026E+06-2.48004E+05-6.67929E+06-6.00301E+06
 -1      1790-7.55777E+05 2.69152E+05 1.60257E+07 9.52357E+05-6.44188E+06-2.30430E+06
 -1      1791 1.22628E+06 4.89519E+05 2.54995E+07 1.96279E+05-6.43130E+06-1.36782E+06
 -1      1792-7.01691E+05-2.80703E+05 1.53945E+07-1.56292E+05-4.70586E+06-7.20299E+05
 -1      1793-1.43500E+05 1.67859E+06 7.32650E+05-1.12392E+06-5.18655E+06-3.41332E+06
 -1      1794 1.03231E+05 9.60639E+05 1.28341E+06-7.50498E+05-3.72442E+06-2.54939E+06
 -1      1795-1.02450E+05 8.55927E+04-1.50916E+07 2.17456E+04-3.30410E+06-2.54119E+06
 -1      1796-2.91048E+05 5.01988E+05-2.30836E+05-3.04170E+05-3.11033E+06 7.30069E+05
 -1      1797-2.23490E+05 5.52202E+05-2.89626E+06-2.71052E+05-2.00981E+06 4.16739E+05
 -1      1798-7.55226E+05-1.33231E+06 1.20485E+07-5.05267E+05-5.24329E+06-2.26310E+06
 -1      1799-6.46349E+05-4.29653E+05 1.36345E+07 5.87679E+04-5.74911E+06 1.88112E+05
 -1      1800-1.07732E+06-1.33859E+06 1.61461E+07-8.04232E+05-5.94764E+06 3.56822E+05
 -1      1801-2.06192E+04-1.01169E+05 2.06769E+07 2.40391E+03-5.13657E+06-2.04904E+06
 -1      1802-5.42610E+05-5.38682E+04-1.27973E+07 2.43915E+05-5.50161E+06-5.11813E+06
 -1      1803-2.81851E+05 3.08161E+04 6.89161E+06 5.45813E+04-2.93597E+06-1.05740E+06
 -1      1804-4.42027E+05-3.38326E+05 7.57927E+06 1.76481E+05-2.93007E+06-1.28768E+06
 -1      1805-8.04487E+06 2.27778E+06-2.23597E+07 1.09353E+07-1.17573E+07-5.31739E+05
 -1      1806-7.15700E+05-4.87691E+05 2.83675E+05-2.35914E+04-3.80504E+06-3.12098E+06
 -1      1807 2.07731E+06-1.68750E+05 2.92055E+07 6.79090E+05-6.92335E+06-4.83416E+05
 -1      1808 1.33440E+06-6.96864E+05-2.46211E+06 1.20158E+05-5.93836E+06-4.86868E+06
 -1      1809 5.28217E+04-5.23765E+05 9.53431E+06 5.43514E+05-5.47281E+06-3.44864E+06
 -1      1810 1.49560E+07-2.44228E+06 5.91089E+07 8.75922E+06-2.71500E+07-6.68111E+06
 -1      1811-5.32171E+05 1.08634E+04-4.46112E+06 1.88969E+05-2.79034E+06-2.81041E+06
 -1      1812-8.31755E+03 1.25097E+06-3.52821E+06-2.35076E+05-2.91341E+06-2.46244E+06
 -1      1813-1.48624E+04 3.70730E+05 7.09427E+06-3.15899E+05-3.01340E+06-1.77352E+06
 -1      1814 9.26835E+04-6.87510E+06-7.98740E+07 3.27624E+06-6.11345E+06-4.43985E+06
 -1      1815-4.88656E+05 1.01032E+06-7.00620E+07 4.95080E+06-1.86695E+06-7.29433E+06
 -1      1816-6.81905E+06-3.75092E+06-9.54099E+07 1.58030E+06-9.59485E+06-8.93408E+06
 -1      1817-7.87974E+05-1.12887E+06-2.45217E+07 2.05050E+05-3.66756E+06-3.89065E+06
 -1      1818 1.76103E+04-4.12115E+05 3.86906E+06-1.72017E+05-4.59186E+06-3.38273E+06
 -1      1819-1.97840E+05-7.11622E+05 3.34894E+06-3.16310E+05-4.24124E+06-4.44490E+06
 -1      1820 2.59273E+06 6.61497E+05-1.31793E+07-4.66836E+06-4.50361E+06-4.01375E+06
 -1      1821-6.13214E+05-5.52066E+05-7.30069E+07-3.42449E+06-8.48946E+06-6.61148E+06
 -1      1822 5.87205E+06 2.34872E+06-9.60376E+07 8.85179E+05-8.86869E+06-3.97971E+06
 -1      1823-6.21827E+05 3.61702E+04-3.62331E+05-3.07927E+04-1.55110E+05-2.17859E+05
 -1      1824-4.59773E+07-1.10078E+08-1.67191E+07-1.02825E+07-2.08184E+07-2.12848E+06
 -1      1825 3.13424E+06 1.69392E+06 3.71246E+07-6.31882E+06-2.59472E+07-6.49976E+06
 -1      1826-1.05578E+08-5.13116E+06-4.10281E+08-7.47717E+06-1.76175E+07 8.60423E+06
 -1      1827 1.13925E+08 3.40134E+06 4.41756E+08-1.02897E+07-2.11774E+07-5.45770E+06
 -1      1828-6.87909E+05-4.83298E+05-1.33325E+07 1.26352E+05-2.72755E+06-2.73445E+06
 -1      1829 4.35682E+04-2.49258E+05 1.26121E+06-2.23667E+05-3.23245E+06-2.33509E+06
 -1      1830-1.81987E+05-4.49715E+05 2.69162E+06-1.68140E+05-3.12568E+06-3.12103E+06
 -1      1831 3.27276E+05-3.10532E+05-1.89884E+04-3.98734E+04-2.92320E+06-2.54485E+06
 -1      1832 1.32590E+05 1.61102E+05 1.72581E+06-2.30181E+05-2.32238E+06-2.05180E+06
 -1      1833-6.10742E+05 4.33413E+05 6.93268E+04-1.10707E+05-2.36158E+06 1.03304E+06
 -1      1834-1.66952E+06-6.22722E+06 1.00534E+07 4.29223E+06-7.93896E+06-4.91852E+06
 -1      1835-9.34627E+04 3.04880E+06-2.54160E+07 6.19707E+04-4.03716E+06 5.49454E+06
 -1      1836-2.16838E+06 1.14534E+06-1.17710E+08 1.89817E+06-2.55982E+06-6.82322E+06
 -1      1837-9.89211E+05 9.76802E+05-1.26059E+08-5.76214E+05 8.06488E+05-6.61442E+06
 -1      1838-3.30716E+05 4.28616E+05-2.27086E+07-1.25460E+06-4.48743E+06-4.36258E+06
 -1      1839 6.01877E+04 1.02324E+06 4.37902E+06-9.78668E+05-4.72490E+06-2.83668E+06
 -1      1840 1.98410E+05 1.94092E+05 4.31104E+06-3.57537E+04-2.10798E+06-8.03478E+05
 -1      1841-3.31697E+05-1.56405E+05 2.66570E+06-1.25679E+05-1.98612E+06-1.85403E+06
 -1      1842-5.28711E+05 1.69855E+05-9.83836E+05-3.97453E+04-2.51552E+06-2.05076E+06
 -1      1843-3.57717E+05 5.11279E+04 7.27732E+05 3.70299E+05-2.40179E+06-9.69620E+05
 -1      1844 7.67817E+06 6.26195E+06 2.01997E+07 5.03575E+06-2.25036E+06-3.94266E+06
 -1      1845 1.01272E+07 3.25894E+06 3.79120E+07 6.12990E+06-2.44022E+06-5.12079E+05
 -1      1846 7.41501E+06-4.80104E+06-7.34652E+07 7.78009E+05-2.16009E+06 3.33565E+06
 -1      1847-1.30216E+07-7.65310E+06-1.06021E+08 5.06808E+06-5.81615E+06-1.93136E+07
 -1      1848-9.37713E+04 3.76400E+05-1.27503E+07-6.52730E+05-3.14574E+06-2.83212E+06
 -1      1849 6.01267E+03 4.89642E+05 2.84808E+06-5.07447E+05-3.40178E+06-2.09748E+06
 -1      1850-1.16529E+05 8.44175E+04-7.20490E+06-3.33126E+04-2.48777E+06-2.02976E+06
 -1      1851 2.76288E+05-1.77257E+06 1.15786E+07 4.03199E+06-9.07980E+06-6.62022E+06
 -1      1852-7.26469E+05 4.07064E+05 9.90678E+05-3.01269E+04-2.16485E+06-1.20356E+06
 -1      1853 1.46985E+06-2.72938E+06 2.85208E+07 4.67669E+05-8.49980E+06-4.03292E+06
 -1      1854-3.30144E+05 5.99268E+05 2.67725E+07 1.49678E+06-9.81638E+06-4.00400E+06
 -1      1855-1.20855E+06 1.32989E+06 1.14764E+07 8.09166E+05-8.49744E+06-5.15052E+06
 -1      1856-1.23633E+06-7.93565E+05 9.87371E+06 1.25464E+06-6.86896E+06-5.01462E+06
 -1      1857-1.68126E+06 2.42624E+05 1.77437E+07-9.94850E+04-6.01859E+06-3.25570E+06
 -1      1858-1.10764E+06-7.25860E+04 7.87644E+06 7.37042E+04-4.03950E+06-2.63390E+06
 -1      1859-9.97306E+05-3.74138E+05 1.47146E+07-2.44703E+05-9.03015E+06-4.38341E+06
 -1      1860-1.38889E+06 3.57312E+06-6.71726E+06 4.73185E+05-6.12564E+06-3.47597E+06
 -1      1861 1.87999E+06 3.55880E+05 3.10444E+07 5.86571E+05-7.00338E+06-2.48910E+06
 -1      1862-1.08209E+06-7.55784E+05 3.23171E+07-2.01405E+05-7.28751E+06-3.02663E+06
 -1      1863-6.36675E+05-1.44791E+05-4.11195E+06-2.04719E+05-3.65490E+06-3.52243E+06
 -1      1864-1.05367E+05-4.02278E+05 6.04181E+06 3.78342E+05-4.04616E+06-2.65910E+06
 -1      1865-1.96300E+05 1.89690E+06-1.33552E+06-2.24641E+05-3.69099E+06-2.85723E+06
 -1      1866 1.80601E+06-2.41881E+06-8.77673E+07 5.70407E+05-5.78227E+06-6.62383E+06
 -1      1867 3.96228E+05-7.47463E+05-6.90133E+07-1.09014E+05-6.37374E+06-2.24662E+06
 -1      1868 5.88015E+07 9.70800E+07 4.43848E+07 2.22180E+07-1.31090E+07-1.80911E+06
 -1      1869 7.58523E+05 1.42845E+06-9.04962E+06 7.89567E+04-1.92459E+06-2.27626E+06
 -1      1870-2.39391E+05 7.55410E+05-9.78197E+06-3.58357E+05-2.05251E+06-1.17842E+06
 -1      1871 8.48390E+06-1.06564E+07 3.74123E+07 1.46275E+07-1.55250E+07-3.42066E+06
 -1      1872-1.32206E+07 9.01331E+06-2.68063E+07 1.81344E+07-1.21105E+07-3.01210E+06
 -1      1873-8.39490E+05-2.89983E+05-6.16202E+06-3.68186E+05-4.98900E+06-4.83085E+06
 -1      1874-4.26902E+05 3.16546E+06-8.17468E+05-3.22979E+05-5.12568E+06-4.07808E+06
 -1      1875-7.06039E+05-1.44503E+05 5.52755E+05-3.67355E+04-4.06370E+05-5.46330E+04
 -1      1876-1.06260E+06 9.83779E+04 6.71452E+05-7.04710E+04-2.00125E+05 3.70624E+05
 -1      1877-6.97925E+06 6.65583E+06 3.60071E+07-3.20294E+06-1.95716E+07 2.63519E+06
 -1      1878 2.58309E+04-3.75318E+05-4.56787E+06-3.48852E+05-2.27480E+06-1.75204E+06
 -1      1879 1.29525E+05-2.97663E+05 4.33720E+06 9.99683E+04-2.35037E+06-1.85525E+06
 -1      1880-3.67432E+05-6.62732E+05 2.61835E+07-2.37894E+05-6.15427E+06-2.99171E+06
 -1      1881-1.22628E+06-1.99767E+06 2.69985E+07 7.71797E+05-8.19864E+06-2.57035E+06
 -1      1882-2.51360E+05-1.22853E+04 6.92631E+05 1.02714E+05-1.31874E+06-8.40361E+05
 -1      1883 3.89229E+05 2.70125E+05 9.80805E+04-1.40014E+05-1.28605E+06-9.90805E+05
 -1      1884-1.92544E+05-1.44470E+05 2.51413E+05-7.38825E+04-1.15543E+06-1.24133E+06
 -1      1885-1.94604E+05 1.90538E+05-1.93903E+06-7.73995E+04-1.19231E+06-1.05209E+06
 -1      1886 1.18231E+06-1.78762E+04 1.50204E+07 4.86419E+05-6.66838E+06 3.78055E+05
 -1      1887-8.93244E+05-1.25002E+06 3.28651E+07-3.58152E+05-6.84183E+06 1.06436E+06
 -1      1888-2.15862E+06-3.09053E+05 3.14980E+07-5.20451E+05-8.70397E+06-9.50878E+05
 -1      1889 2.50770E+06-1.11588E+06 6.06309E+07-6.31300E+05-8.87065E+06-1.17895E+05
 -1      1890 6.63967E+05-1.10058E+06 1.52686E+07-1.07677E+05-8.35986E+06 1.43215E+06
 -1      1891-3.07570E+06 4.79346E+05-1.48029E+07-1.01681E+05-9.06957E+06 9.67405E+05
 -1      1892 1.22357E+05-2.46125E+05-1.57954E+07 9.04982E+04-5.83489E+06-5.80383E+06
 -1      1893-1.83170E+06 1.89333E+04 6.96623E+06-5.08475E+05-8.29729E+06-3.68919E+06
 -1      1894-2.92494E+06 3.47184E+06 5.18552E+06 2.43541E+06-9.29866E+06-5.19451E+06
 -1      1895-2.54262E+04 1.53243E+06 2.05047E+07 1.67446E+06-1.17794E+07-1.41103E+06
 -1      1896-1.90505E+06-3.98433E+06-2.71665E+07-8.25949E+05-4.53174E+06 5.89090E+06
 -1      1897-5.28468E+05-1.41219E+05 7.78456E+06 3.65949E+04-4.33955E+06 1.24263E+05
 -1      1898-5.83652E+05-7.69344E+05 5.66410E+06-3.54320E+05-3.86215E+06-1.83099E+06
 -1      1899-1.67371E+05-1.39738E+05 1.23522E+07-3.61374E+04-3.81621E+06-1.56280E+06
 -1      1900-9.79871E+05-9.20898E+05 1.02253E+07-6.62610E+05-4.32937E+06 2.37563E+05
 -1      1901 3.27722E+05 1.00017E+05 9.76753E+06 9.50364E+04-3.34673E+06-8.61658E+05
 -1      1902-5.44217E+05-7.05479E+05 1.04166E+07-2.93268E+05-3.61273E+06-1.52199E+06
 -1      1903 2.00699E+06 2.49251E+06-4.55373E+07-2.73207E+06-1.10502E+06-4.21223E+05
 -1      1904-3.00832E+06 1.91969E+06-6.30342E+07 3.00115E+06 1.24831E+06-8.68604E+06
 -1      1905-3.63429E+06-5.34397E+06-9.56047E+07 6.74860E+05-6.83077E+06-9.65563E+06
 -1      1906 3.03385E+06-1.59211E+06-6.46528E+07 1.57812E+06-2.72596E+06-5.92384E+05
 -1      1907-2.05363E+05 9.19097E+05-6.33418E+06 2.39336E+06-6.53899E+06-6.49311E+06
 -1      1908 3.71221E+06 2.59151E+06 1.32546E+07 2.11362E+06-6.59757E+06-3.55002E+06
 -1      1909 6.58021E+05-8.74205E+05-1.15434E+06 1.38033E+05-4.47149E+06-3.75845E+06
 -1      1910 1.15345E+07-3.85404E+06 8.08243E+07-8.62880E+06-1.92230E+07 4.86127E+06
 -1      1911-6.18398E+05 2.98606E+06-3.73936E+06-3.87599E+05-5.66758E+06-4.81971E+06
 -1      1912 5.62166E+07 1.17603E+08 6.56711E+07-3.61470E+07-5.48493E+07-8.12562E+06
 -1      1913-7.71303E+05 3.41678E+05 3.73455E+06 3.18978E+05-3.81966E+06-1.32114E+06
 -1      1914-2.44567E+05 1.41344E+05 1.61253E+06-2.40326E+04-1.87296E+06-2.78278E+05
 -1      1915-1.18455E+06-3.04387E+05 2.67379E+06-2.16011E+05-1.30149E+06-2.28013E+05
 -1      1916 9.56875E+05 4.23357E+04-2.36617E+06-1.41777E+05-2.17740E+06-1.84191E+06
 -1      1917 3.59678E+05 1.87362E+05 3.35822E+06-2.76135E+05-1.83844E+06-1.50873E+06
 -1      1918-8.44114E+05-6.19898E+05-4.92112E+06 2.20981E+05-2.28359E+06-1.74613E+06
 -1      1919 6.56848E+05-1.29558E+06 3.42837E+07-1.78074E+03-6.39815E+06-1.12777E+06
 -1      1920-2.05643E+06 9.45284E+05 4.79714E+06 6.48825E+05-5.94538E+06 2.92516E+05
 -1      1921-8.85030E+05 1.07394E+06 1.50621E+07-1.67155E+05-4.97345E+06 9.40309E+04
 -1      1922-9.92848E+05 3.26510E+05 8.45425E+06 5.15537E+05-5.27554E+06-1.76561E+06
 -1      1923 7.70199E+05 1.22587E+05 1.71379E+07 1.47705E+05-4.76508E+06-1.14140E+06
 -1      1924 9.76551E+06 3.90406E+06-1.13915E+08-2.24951E+06-9.68446E+06-8.17010E+06
 -1      1925-9.61263E+04 3.53656E+05 3.92735E+06-1.15885E+05-2.67411E+06 2.51214E+04
 -1      1926-1.20129E+06 2.36291E+05-9.24249E+05 1.37051E+05-3.09268E+06 1.87701E+05
 -1      1927-1.64509E+05-4.78696E+04-2.63395E+04-1.39960E+04-2.14231E+05-2.89387E+05
 -1      1928-5.02941E+05 7.68745E+05 2.61896E+07-4.59470E+04-7.74620E+06-2.37180E+06
 -1      1929-2.45967E+06 1.04072E+06 5.28516E+06 2.80606E+05-8.93542E+06-1.72093E+05
 -1      1930 9.42757E+05-4.57470E+05 2.34604E+07 1.90335E+05-8.04632E+06 3.80800E+05
 -1      1931-1.55604E+06 8.94482E+05 1.89522E+07 5.73394E+05-7.69326E+06-2.76197E+06
 -1      1932 9.61672E+06 1.05969E+07 7.02737E+07-4.05085E+06-2.59020E+07 5.85878E+06
 -1      1933 8.10500E+06-7.89491E+06 3.74967E+07-4.27004E+06-1.08136E+07-2.68720E+06
 -1      1934-5.57400E+05-3.26168E+06 4.31989E+06-2.56028E+06-1.57983E+07-5.34992E+06
 -1      1935-7.58920E+06 2.55779E+03 3.70389E+07 2.99760E+05-1.58629E+07 6.55754E+05
 -1      1936 3.24336E+06-1.68797E+04 7.29405E+07 5.89446E+05-1.47878E+07 4.27024E+06
 -1      1937-1.72016E+05-1.16839E+06 2.25440E+07-7.95287E+04-6.10366E+06-3.26177E+06
 -1      1938-1.94033E+05-3.78515E+04-9.83859E+05-1.23614E+05-2.03023E+06-1.29495E+06
 -1      1939-8.05859E+05-2.85338E+05 3.12521E+06-1.09540E+05-1.68067E+06-1.33953E+06
 -1      1940-6.00268E+05-4.27247E+04 1.43139E+06-4.66688E+04-1.66362E+06-1.39428E+06
 -1      1941-2.36560E+05-7.02748E+05 4.65015E+06 5.69035E+04-1.92787E+06 2.10304E+05
 -1      1942-1.51572E+05 3.33345E+05-2.50175E+05-1.02947E+04-1.66045E+06-3.50020E+05
 -1      1943-1.12445E+06 6.04891E+05 1.36980E+06-1.86026E+05-1.84049E+06-2.96836E+05
 -1      1944-5.32416E+05-4.83969E+05 6.13069E+06-2.36572E+05-1.58249E+06 1.71640E+05
 -1      1945-3.25114E+04 2.94092E+05-8.66293E+05 2.68426E+04-2.07354E+06-1.65375E+06
 -1      1946 1.46955E+07 9.35580E+06-4.49877E+06 8.71176E+06 1.32608E+05-7.20222E+06
 -1      1947-5.40923E+05-1.80250E+06 2.61746E+07 3.83937E+05-5.94568E+06 2.80849E+05
 -1      1948 1.25190E+06 1.63209E+06 1.29341E+07-1.37888E+06-5.88284E+06-4.24399E+06
 -1      1949-5.93066E+05 4.86662E+05-3.13319E+07-2.41153E+06-6.30369E+06-6.61375E+06
 -1      1950 7.87688E+06 1.81842E+06-5.49414E+06 8.36029E+06-3.01501E+06-3.86416E+06
 -1      1951 1.72024E+06-1.32864E+06 2.50515E+07-4.55994E+04-9.45026E+06-3.28848E+05
 -1      1952 1.07689E+06-1.63054E+06 5.19804E+07 6.91168E+05-1.06888E+07-1.38850E+06
 -1      1953 4.06933E+05 4.43780E+05-5.51066E+06-2.91792E+04-2.46349E+06-1.40666E+06
 -1      1954-5.46754E+05-7.07144E+04-2.15055E+06 5.27727E+04-1.29468E+06-1.28142E+06
 -1      1955-1.76288E+05 3.37710E+06-4.52810E+07 3.31947E+05-4.44126E+06-6.62433E+06
 -1      1956 1.47030E+07-9.11139E+06 7.50682E+07-5.93906E+06-1.76947E+07 1.84738E+06
 -1      1957 7.52714E+06-4.70394E+05 7.74723E+07-8.52944E+05-1.88538E+07 7.83861E+06
 -1      1958 6.94226E+03 5.30692E+05 1.64041E+07 2.16730E+05-6.27085E+06 6.31471E+05
 -1      1959-1.04997E+06-7.19735E+04 8.67455E+06-3.16853E+05-6.02185E+06-4.68141E+04
 -1      1960-5.01695E+04-4.79301E+05-1.54526E+06-3.71379E+05-2.31994E+06 3.28383E+05
 -1      1961-5.23200E+05-9.93665E+05 2.26522E+06 4.87681E+05-1.81979E+06 1.14714E+06
 -1      1962-1.51420E+05 1.11291E+05-1.47909E+06-6.00656E+04-9.30214E+05-9.21241E+05
 -1      1963-1.99544E+06-1.45770E+06-8.08616E+07 7.56888E+05-7.80114E+06-8.55192E+06
 -1      1964-3.32872E+06-2.20678E+06-6.88337E+07-5.29139E+06-7.00848E+06-6.92077E+06
 -1      1965 1.53068E+06 3.18030E+05-8.27685E+06-1.80146E+06-6.79085E+06-3.15533E+06
 -1      1966 1.59073E+06-5.12535E+05-2.13105E+07-2.49890E+05-5.16973E+06-5.85547E+06
 -1      1967-1.86141E+05 1.48213E+05-1.34989E+06-1.23255E+05-2.96589E+06 1.37177E+06
 -1      1968 1.42373E+06-4.35837E+05 3.74998E+07 1.00614E+05-8.70053E+06-1.26277E+06
 -1      1969-1.65095E+06-1.33664E+06 2.18155E+07 1.07709E+06-9.71414E+06-1.77545E+06
 -1      1970-2.12409E+06 3.77221E+05 1.09631E+07-6.95496E+05-8.15091E+06 3.61957E+06
 -1      1971-1.11004E+05-4.40832E+04 1.09561E+06-8.63186E+04-8.08287E+05-8.15041E+05
 -1      1972-4.30956E+05 7.66165E+04 1.43925E+06-5.75193E+04-7.82134E+05-4.68289E+05
 -1      1973-3.49110E+05 1.50695E+05-4.00613E+05-8.14693E+04-9.43431E+05 6.01472E+04
 -1      1974-7.15999E+05 8.20521E+04 6.02288E+05-5.94567E+04-8.57048E+05-3.91527E+05
 -1      1975-3.34766E+05-3.45212E+04 5.66193E+05 6.92454E+03-7.28441E+05 5.57755E+04
 -1      1976-3.10955E+05-2.45555E+05 2.02592E+07 2.49400E+05-5.34718E+06-2.62244E+06
 -1      1977 7.91405E+06 9.55644E+05 4.11308E+07 4.06993E+06-1.36521E+07-6.90100E+06
 -1      1978-9.24895E+05 6.69833E+03 1.17229E+06-2.34268E+04-6.09584E+05 2.95735E+05
 -1      1979-2.97923E+05-6.67578E+05 1.75059E+07-3.46322E+05-4.77755E+06-2.16498E+06
 -1      1980-3.95497E+05 3.81061E+05-4.58594E+05-7.68241E+04-2.25483E+05 2.16228E+05
 -1      1981-5.37343E+05-5.38694E+04-3.37302E+05-3.18850E+05-4.63995E+05 5.75536E+05
 -1      1982-4.27327E+05-1.95044E+04 3.54039E+05 1.32832E+04-5.08360E+05 6.20428E+05
 -1      1983-4.88598E+05-1.72648E+06 1.78755E+06 4.73944E+05-1.70404E+06 7.27097E+06
 -1      1984-1.10787E+06-2.63531E+05-7.80554E+06-1.12875E+06-3.22704E+06 3.46051E+06
 -1      1985-8.76657E+05-2.03965E+05-1.24619E+07-2.48181E+05-2.88557E+06 2.29086E+06
 -1      1986-3.40202E+05-1.03869E+06 4.90264E+06 7.12413E+04-2.31571E+06 8.62152E+06
 -1      1987-5.99781E+05 1.12759E+05-1.77410E+07 2.03274E+05-3.83820E+06 2.61370E+06
 -1      1988-1.03511E+06-7.24572E+05-2.37442E+07 2.76888E+05-4.70493E+06 2.97209E+06
 -1      1989-4.19150E+05-1.46989E+06 7.02858E+06-7.11624E+04-3.50311E+06 9.99044E+06
 -1      1990-8.88668E+05 4.96832E+05 4.73920E+06 4.62782E+04-3.56327E+06-1.92145E+06
 -1      1991 2.61013E+06 3.70165E+05-5.16387E+07-1.41371E+04-4.00523E+06-2.93261E+06
 -1      1992-1.04634E+06 5.64895E+05 1.04373E+07 1.40268E+05-4.79796E+06-2.60791E+06
 -1      1993-4.33546E+06-7.26563E+05 2.87955E+07 1.15830E+06-1.09213E+07-2.79638E+06
 -1      1994 3.60429E+06 8.23051E+05 3.68692E+07 2.62230E+06-1.06117E+07-3.96757E+06
 -1      1995-2.23511E+05 1.46099E+05-3.03989E+06 8.12314E+04-1.45992E+06-1.37440E+06
 -1      1996-3.35973E+05-5.65260E+05 1.09859E+07-4.01576E+05-2.99257E+06-5.34473E+05
 -1      1997-1.61048E+06 2.44636E+05 8.59275E+06-1.64818E+04-3.25989E+06-2.21166E+05
 -1      1998-3.54003E+05 3.29627E+04 5.45537E+05 5.62533E+04-1.32760E+06-2.36148E+05
 -1      1999-8.96220E+05-3.93542E+05 1.79594E+07 1.76450E+05-6.70770E+06-3.51390E+06
 -1      2000-4.75639E+04 5.47561E+04-1.20402E+06-1.52522E+05-6.63817E+05-7.22475E+05
 -1      2001 4.83826E+04 7.21115E+04-1.97274E+06-1.04279E+05-8.82051E+05-7.48434E+05
 -1      2002 7.36610E+06-2.90955E+06 5.23975E+07 1.45457E+06-1.30305E+07-1.81956E+06
 -1      2003 7.47265E+05-1.71612E+06 5.11632E+07-4.89791E+05-7.96256E+06 1.91719E+06
 -1      2004-2.05378E+06-5.29985E+05 5.03316E+07 1.27458E+05-8.07649E+06 1.04899E+06
 -1      2005-1.16428E+06-5.23289E+05 7.13156E+06-2.78417E+05-2.80662E+06 4.57833E+05
 -1      2006-2.26423E+06 8.34158E+05 3.23639E+07 1.08959E+05-6.83070E+06-2.80693E+06
 -1      2007-4.18585E+05-2.27148E+05 3.59924E+06-6.01429E+04-1.67902E+06-2.91957E+05
 -1      2008-6.57846E+06-4.21537E+06-4.59264E+07-5.24608E+06-2.95026E+06-3.02582E+06
 -1      2009 1.23581E+06-3.41498E+06 4.00039E+07 3.96797E+05-9.90791E+06-2.43154E+06
 -1      2010 1.27205E+06 2.66766E+06 3.05259E+07 6.77962E+05-6.57565E+06-4.05812E+06
 -1      2011-1.70170E+06-2.13421E+06 2.02925E+07 1.90358E+05-7.42079E+06-5.35738E+06
 -1      2012-2.16958E+06 3.86996E+05-4.62419E+07 4.00361E+05-6.50124E+06-6.21196E+06
 -1      2013 1.52464E+05-2.54711E+05-1.36906E+07 2.86321E+05-7.73023E+05-2.71230E+06
 -1      2014-1.04642E+07-5.71576E+06-8.88595E+07 1.38146E+06-6.80416E+05-7.81489E+06
 -1      2015-8.43125E+07 1.18372E+07-3.94090E+08 2.12469E+07-1.04200E+07-2.96447E+07
 -1      2016-5.40155E+07 1.75992E+07-3.50145E+08 2.85630E+07 8.37693E+06-3.82863E+07
 -1      2017-2.55251E+06-2.15259E+06-1.13554E+08-8.99597E+04-6.26148E+06-4.56530E+06
 -1      2018 1.23811E+06-2.28840E+06-9.15618E+07-5.79938E+06-2.98569E+06-9.40529E+06
 -1      2019 1.30117E+06-2.03566E+06-9.95472E+07-2.70317E+06-6.62845E+06-2.47000E+06
 -1      2020 2.37548E+06-1.97240E+06 5.27917E+07-9.42937E+05-8.99069E+06 2.20245E+06
 -1      2021-1.84614E+06-2.72674E+05 9.14770E+06-8.80726E+04-5.20651E+06-2.29190E+06
 -1      2022 1.03389E+05-6.11908E+04 1.82524E+07 1.01543E+05-4.96950E+06-1.87915E+06
 -1      2023 2.76622E+06 1.38644E+06 2.67553E+07 9.11831E+05-8.41525E+06-4.67460E+06
 -1      2024-3.37824E+04-3.68522E+04 1.08721E+07 3.72450E+04-3.63891E+06-1.37099E+06
 -1      2025-9.34934E+05-5.15826E+05 1.71678E+07-4.99386E+05-7.51652E+06 3.24622E+06
 -1      2026 2.95132E+04-2.52245E+05 3.33770E+05-5.20419E+04-1.05478E+06-9.49618E+05
 -1      2027-4.96550E+05-6.12140E+05 5.31367E+06-2.78944E+05-2.04517E+06-8.73068E+05
 -1      2028-5.70147E+05-1.08212E+05 5.28469E+04-1.96483E+05-1.35214E+05 1.97987E+05
 -1      2029-5.33613E+05-1.13741E+06 1.58149E+07 1.02454E+05-4.39828E+06 9.62452E+04
 -1      2030 2.74459E+06 7.67088E+05 2.92070E+07 6.39114E+05-6.95770E+06-3.59303E+06
 -1      2031-1.75196E+06 1.41858E+06-2.89641E+07 1.16279E+06-6.55544E+06-4.85540E+06
 -1      2032-3.51892E+05 5.67667E+05 1.36755E+07-1.85983E+05-7.37025E+06 7.88144E+05
 -1      2033-7.41418E+05 6.10209E+05 1.57377E+06 2.53999E+05-4.00706E+06 2.56257E+05
 -1      2034-8.18163E+05 7.73879E+05 4.46680E+06 3.79775E+05-5.44232E+06 1.39888E+05
 -1      2035-1.51550E+06 1.39610E+05 2.68458E+07-2.86958E+05-7.64270E+06 1.31000E+06
 -1      2036-4.29808E+05-2.32066E+05 2.49620E+06-2.26215E+05-1.05156E+06-7.09287E+04
 -1      2037 1.44008E+06-2.68633E+06-3.46739E+07-2.08560E+05-5.35778E+06-4.81445E+06
 -1      2038-4.56270E+07-7.86084E+07-8.67564E+06 5.19831E+07 2.24677E+07 4.55474E+06
 -1      2039 6.41076E+07-1.01855E+07 3.32886E+08 3.68314E+07 8.86264E+06 4.30072E+07
 -1      2040 2.39032E+07 1.09375E+07-3.54806E+07 3.03651E+07 6.24973E+06 3.87158E+05
 -1      2041-3.17828E+06 1.53050E+06 4.28864E+07-1.25932E+06-1.22951E+07 3.67687E+06
 -1      2042-4.34732E+05 7.83807E+04-4.46458E+05-5.36384E+04-5.96692E+05-2.78800E+05
 -1      2043-1.58825E+06 6.87485E+05 2.26225E+06 4.60374E+05-4.32068E+06 2.47664E+05
 -1      2044-6.97625E+05 8.18420E+05 7.48487E+06-2.29539E+05-3.72695E+06-5.32380E+04
 -1      2045-3.42526E+05-8.82903E+05 2.00776E+07 1.23420E+05-4.93426E+06-6.16084E+05
 -1      2046-1.71888E+06-7.01236E+04 1.14248E+07-8.99470E+04-4.34427E+06 1.04338E+06
 -1      2047-3.99935E+05-1.69092E+04 8.40160E+06 1.58627E+04-3.67889E+06 2.46132E+05
 -1      2048-1.27628E+06-1.62456E+06 1.26984E+07-2.59463E+05-3.41163E+06 6.57250E+05
 -1      2049-1.82721E+05-8.06723E+05 7.94207E+06 1.29269E+05-3.85342E+06 6.65659E+05
 -1      2050-3.65337E+05 3.66582E+05-8.30012E+05-2.67034E+05-1.78666E+06 6.08636E+05
 -1      2051-4.18467E+05-9.09181E+05 1.32609E+07-3.13700E+04-4.57118E+06-2.46393E+06
 -1      2052 4.64492E+05-3.84453E+05-6.92763E+07-2.19416E+06-4.88328E+06-5.37621E+06
 -1      2053-2.36297E+06-3.46129E+06-1.17321E+08-1.91168E+06-2.55702E+06-7.08272E+06
 -1      2054-8.39935E+05 7.43527E+04-4.67967E+04-7.54772E+04-1.69995E+05-1.98262E+05
 -1      2055-6.49549E+05 2.29038E+04-1.12855E+05 3.33512E+04-5.66452E+05 4.19032E+05
 -1      2056-5.75021E+05 2.80687E+05 1.07686E+06-1.62484E+05-2.57884E+06-1.81566E+05
 -1      2057 1.43011E+06-2.75073E+05-3.36444E+07-5.88607E+04-3.20984E+06-2.40684E+06
 -1      2058 9.13704E+05-1.97819E+05-1.74924E+07-3.66595E+04-2.52090E+06-1.86834E+06
 -1      2059-5.09887E+04 6.82103E+03-5.55884E+03 4.78323E+03-7.43968E+05-8.54368E+05
 -1      2060-3.36289E+05-2.45758E+04-1.37173E+06 6.19151E+04-1.09822E+06-1.00242E+06
 -1      2061-3.24663E+05 5.45037E+04-8.98839E+04-3.51462E+05-1.28468E+06-5.23963E+05
 -1      2062 4.48777E+05 1.14510E+06 1.53382E+07-8.18103E+05-5.69154E+06 6.35849E+05
 -1      2063 1.60192E+05 4.19425E+05 1.38804E+07-8.18543E+04-5.26878E+06 5.05170E+05
 -1      2064-1.42205E+06-1.18711E+05 4.30053E+06-5.44542E+04-3.94319E+06-1.64619E+06
 -1      2065-1.85970E+07-7.92425E+06-5.77939E+07 2.35452E+07-9.46675E+06-7.83780E+05
 -1      2066-6.75528E+04-6.30122E+05 4.23813E+07-7.22365E+05-7.89339E+06-7.83975E+05
 -1      2067 6.40195E+05-1.13106E+06 1.80502E+07-1.34294E+05-7.03232E+06 5.16080E+05
 -1      2068-3.07133E+05-8.28846E+05 2.36662E+06 2.47795E+04-2.07961E+06 1.17492E+06
 -1      2069-2.72734E+05-1.98177E+05 1.29751E+07 1.19881E+05-3.94882E+06-1.84215E+06
 -1      2070 8.88266E+06-2.93457E+06 8.45765E+07-4.06469E+06-1.05318E+07 4.00023E+06
 -1      2071-2.19800E+06 2.46176E+06 2.78520E+07-3.34470E+06-1.57355E+07 3.45275E+06
 -1      2072-3.40673E+05 1.39689E+05-5.12316E+05 3.39490E+03-6.24248E+05-6.68781E+05
 -1      2073 4.91433E+06-1.01535E+06 4.41074E+07 1.03686E+06-9.83168E+06-3.35899E+06
 -1      2074 9.06595E+05-3.80590E+05-4.54460E+07-5.14968E+05-3.28386E+06-1.13906E+06
 -1      2075 9.68004E+05-3.71064E+05-2.62199E+07-3.60292E+05-2.75176E+06-1.34335E+06
 -1      2076-1.72191E+06-4.64442E+06 1.30521E+07 2.48379E+06-8.84856E+06-3.89817E+06
 -1      2077 1.07055E+06 1.76393E+05-1.08477E+07-1.02749E+05-1.96705E+06-1.34236E+06
 -1      2078-1.63467E+06-1.08271E+06-9.45298E+06-3.62592E+05-1.62702E+06-1.69910E+06
 -1      2079-1.66968E+05-1.90536E+04-3.47623E+05 1.36857E+04-1.74266E+05-2.40181E+05
 -1      2080-5.81333E+05 9.22848E+03 1.52191E+05-2.90768E+04-2.11957E+05-3.29959E+05
 -1      2081-2.06183E+05 3.50637E+04-2.52538E+05-1.57665E+04-3.26707E+05-4.38399E+05
 -1      2082-1.91945E+05 3.44861E+04-4.03775E+05-7.07158E+04-3.01677E+05-3.09243E+05
 -1      2083-1.02982E+05 6.75553E+04-3.37775E+05-1.01237E+04-1.28615E+05-9.07638E+04
 -1      2084 3.09804E+05-1.25904E+06 1.69444E+07 1.54341E+06-8.27407E+06-1.98187E+06
 -1      2085-1.65836E+06 9.82159E+05 2.08481E+07 3.05093E+05-5.39895E+06-8.29425E+05
 -1      2086-5.83802E+05-4.96776E+05-2.82187E+07-1.52208E+06-5.71516E+06 1.22992E+06
 -1      2087-1.88775E+06-1.75552E+06 2.41282E+07-1.02740E+06-6.01395E+06 3.05459E+06
 -1      2088 3.62349E+05-3.78226E+05 4.94323E+07-1.02966E+05-5.69082E+06 6.92801E+06
 -1      2089 4.59555E+05 1.08392E+06-1.06440E+06-1.92427E+04-5.33197E+06 4.95109E+06
 -1      2090-2.96250E+06-2.96889E+05 1.16152E+07 1.65808E+05-1.02834E+07 3.01388E+05
 -1      2091-1.58642E+06-3.43722E+06-8.25353E+06-1.13148E+06-1.08878E+07-1.03487E+06
 -1      2092 5.79804E+06-3.51389E+06 4.99490E+07-1.24729E+06-8.92364E+06 2.82449E+06
 -1      2093 2.50165E+06 2.15323E+06 6.86132E+07-1.61985E+06-8.98981E+06 5.42781E+06
 -1      2094-9.13249E+04 3.20524E+04 1.83640E+07-6.59061E+04-3.28180E+06 9.12728E+06
 -1      2095-2.70081E+06 3.07961E+04 4.19410E+07 5.45403E+04-1.05205E+07-4.16698E+05
 -1      2096-8.42362E+04-1.26249E+04 9.68798E+05-4.79361E+04-8.44516E+05-6.70013E+05
 -1      2097 1.01232E+06 4.09405E+06-5.75596E+07 1.75213E+06-4.56368E+06-4.79745E+06
 -1      2098-1.07314E+06-1.18593E+06-3.12450E+06 6.64077E+04-1.72931E+06-1.50440E+06
 -1      2099 1.38524E+05 2.41350E+04 2.53721E+06-1.58677E+03-1.77960E+06-1.29407E+06
 -1      2100-6.73238E+04-6.40220E+05 1.76187E+06-7.53933E+04-1.73560E+06 5.54396E+05
 -1      2101 2.55429E+05 7.23763E+04-1.82364E+06-2.20868E+05-1.31315E+06-2.61212E+06
 -1      2102-7.24782E+05-5.99717E+04 1.51719E+05 4.23110E+04-5.37730E+05-1.63980E+05
 -1      2103-1.68081E+06-2.67888E+05 1.00647E+07-1.04286E+06-3.29009E+06 2.45262E+06
 -1      2104-8.02750E+05-3.30138E+05 3.60681E+06-4.12747E+05-3.11255E+06 8.76954E+05
 -1      2105-4.26099E+05-9.86236E+04-3.75933E+06 5.31712E+04-1.15008E+06-8.94387E+05
 -1      2106-2.76074E+05-4.75227E+05-1.73055E+06-1.51692E+05-1.13556E+06-1.11322E+06
 -1      2107-1.73331E+05-2.83124E+04 5.65572E+04-2.85521E+02-1.64257E+05-2.33842E+05
 -1      2108-5.67649E+05-1.00820E+05 1.56067E+06-1.57389E+05-2.86290E+06 1.08089E+06
 -1      2109-1.39355E+06 7.82547E+05 9.42329E+06-2.50361E+05-3.29348E+06 2.49493E+06
 -1      2110-9.48278E+05-9.05666E+05 1.05492E+07-5.57291E+05-2.47396E+06 1.65718E+06
 -1      2111-2.46374E+05 3.60845E+05-5.21902E+05-9.69508E+04-1.35159E+06 1.23414E+05
 -1      2112 5.12607E+05-8.56945E+05 7.22776E+06 1.07827E+06-6.02739E+06 1.22635E+06
 -1      2113-4.70538E+05 7.47399E+04-3.86121E+05-5.23821E+04-6.36698E+05-4.76972E+05
 -1      2114-6.84768E+05 2.50533E+03 5.49345E+05-1.38596E+05-1.04923E+06 3.84127E+05
 -1      2115-3.78323E+06 9.79404E+05-8.36540E+06-1.25689E+05-1.03177E+07 3.66564E+05
 -1      2116 9.36320E+05 4.70377E+06 4.35402E+07-3.87270E+06-7.50575E+06 8.22297E+06
 -1      2117-1.04771E+06 1.81776E+06-4.74153E+06 3.74667E+05-4.37982E+06 1.43077E+06
 -1      2118 1.14179E+05-1.20497E+06 9.09076E+06 6.79588E+02-4.29261E+06 1.39993E+06
 -1      2119 1.90099E+06-2.55098E+05-5.54973E+07-2.74255E+06-3.34276E+06-1.25070E+06
 -1      2120 8.71128E+04-6.39927E+04-1.68324E+06-3.29410E+04-8.75646E+05-7.24836E+05
 -1      2121-2.36156E+04 1.76660E+06 2.24011E+07 6.05775E+05-5.96884E+06 4.04081E+06
 -1      2122-1.88510E+06 3.57656E+06-2.92333E+07-6.54117E+05-4.44322E+06 3.35744E+06
 -1      2123-1.64186E+06-2.49882E+04 1.58315E+07 6.70223E+04-4.87039E+06-5.14377E+05
 -1      2124 2.33017E+05-1.32892E+06-4.40096E+07-1.95918E+06-3.97596E+06-2.92889E+06
 -1      2125 9.96192E+04-5.55407E+05-2.48783E+07-1.14541E+06-3.07364E+06-2.09228E+06
 -1      2126 9.91694E+04 8.05087E+05-5.28675E+06-2.10136E+05-9.34870E+05 7.71122E+05
 -1      2127-2.16267E+05 6.33566E+04-4.18191E+06 9.70527E+03-1.23400E+06 1.60533E+06
 -1      2128-1.50151E+05-6.50178E+05 8.51347E+05-5.27638E+05-1.46390E+06 2.74154E+06
 -1      2129-1.62908E+06 1.44568E+05 6.45083E+06-1.65834E+05-2.70165E+06 1.01320E+06
 -1      2130-2.79234E+05-1.96192E+05 1.62747E+06-5.09906E+04-1.37761E+06-1.09464E+06
 -1      2131-1.11096E+06-6.52555E+04 2.67277E+07-4.76043E+04-5.77942E+06 1.68084E+06
 -1      2132-2.69321E+06-1.32211E+06 1.67282E+07-1.05171E+06-3.92987E+06 2.71799E+06
 -1      2133-9.87824E+05-9.06687E+05 2.50069E+06-4.23274E+05-4.09568E+06 7.42936E+05
 -1      2134 4.58626E+05-3.52579E+05 4.43982E+06 3.55248E+05-2.52927E+06 9.69440E+05
 -1      2135-4.25644E+05-2.02243E+06 1.46163E+07-9.97224E+04-5.98171E+06 1.88630E+06
 -1      2136 7.70570E+05-1.46588E+05 5.51675E+07-1.96478E+05-5.90407E+06 3.31943E+06
 -1      2137 1.84687E+05 7.69629E+05 7.65538E+06-6.53113E+05-3.98827E+06 2.92418E+05
 -1      2138-4.99116E+05 1.38767E+04-1.14188E+06-2.10520E+04-2.20698E+06 2.08061E+06
 -1      2139-7.72048E+05 1.45108E+05 3.09467E+06-4.19861E+05-2.73827E+06 2.10145E+06
 -1      2140-1.05634E+06-9.26297E+05 5.45197E+06-4.47018E+05-2.05847E+06 2.90055E+06
 -1      2141-7.18618E+06 3.49262E+06-1.16524E+07-8.77204E+06-3.64751E+06 7.32706E+06
 -1      2142 1.39707E+07 6.63693E+06 9.32802E+07-6.39615E+06-8.68236E+06 6.04093E+06
 -1      2143-1.29230E+07 1.94981E+06-6.00048E+07-4.13214E+06-9.85340E+06 4.69590E+06
 -1      2144-1.58084E+06-5.19337E+04 7.41326E+05-7.10554E+05-6.30069E+06 1.96452E+06
 -1      2145-1.61634E+04-1.42413E+05-7.57629E+04 1.37149E+04-4.86851E+05-6.19137E+05
 -1      2146-5.74193E+05-4.31295E+04 9.36285E+05 1.12957E+04-1.33241E+06-1.15884E+06
 -1      2147-3.97368E+05 2.25302E+05-2.10122E+05-1.07634E+05-1.77412E+06-1.50165E+06
 -1      2148-1.67329E+06-7.36976E+05-8.51747E+05 8.27901E+05-8.90642E+06-4.40637E+06
 -1      2149 2.19391E+06-2.34694E+06-8.61512E+05-4.48622E+06-6.21819E+06 9.85579E+05
 -1      2150-9.44011E+06-4.97560E+06-6.33069E+07-7.00616E+06 5.17191E+06 6.09440E+06
 -1      2151-3.76054E+07 9.75525E+06-2.78243E+08-1.28774E+07-2.44723E+07 3.43223E+07
 -1      2152-5.09611E+06 4.60207E+06-6.87419E+07-1.89041E+07 1.54740E+07 2.91603E+06
 -1      2153-2.44011E+07-1.02643E+07-1.39205E+08 6.96006E+06 2.20467E+04-1.08400E+07
 -1      2154-3.48604E+07-1.41640E+06-2.91046E+08-3.58131E+06-3.03203E+06 2.29220E+07
 -1      2155 1.21984E+06-5.36457E+05-3.46692E+07-1.57544E+06-3.32656E+06-1.62898E+06
 -1      2156-3.92461E+05-1.01612E+06 8.46270E+06-3.31437E+04-2.36261E+06 6.48843E+06
 -1      2157 2.10424E+07-4.75722E+06 6.92875E+07-8.90243E+06-1.00134E+07-1.18082E+06
 -1      2158-1.67181E+06-5.84910E+06 5.10268E+06-1.12159E+07-1.30866E+07-3.23829E+06
 -1      2159 3.96966E+06-3.65420E+06 4.86659E+07-1.33066E+05-1.14417E+07-3.62035E+05
 -1      2160 1.23067E+06-1.32198E+06 5.52399E+07 1.13086E+06-1.20660E+07 4.87616E+05
 -1      2161-1.57658E+06 2.31791E+06-5.87882E+06 1.99334E+05-5.57305E+06 1.88546E+06
 -1      2162 1.83081E+06 1.86133E+06-5.09957E+06-8.59749E+05-6.07942E+06 8.05348E+06
 -1      2163-3.19892E+06-4.14293E+06-4.00668E+07-2.19891E+06-4.76714E+06 1.83962E+06
 -1      2164 6.46324E+06-4.60608E+06 3.55780E+07-2.30099E+06-1.14430E+06 2.85038E+06
 -1      2165-1.51360E+06-7.69542E+05-8.02717E+06-1.54991E+05-1.24421E+06-1.17333E+06
 -1      2166-4.40741E+05-1.52009E+05 1.97183E+06-4.93151E+04-1.08497E+06 6.30036E+05
 -1      2167-2.40845E+06 2.08842E+06-6.49713E+06-7.53999E+05-7.73233E+06 5.80014E+06
 -1      2168 4.34052E+06 1.54918E+06 6.69903E+07-1.09609E+06-6.77124E+06 7.56320E+06
 -1      2169-5.86808E+05 2.82062E+05-2.36423E+07-1.14174E+05-7.99178E+05-4.21598E+06
 -1      2170 1.93607E+05 3.09318E+05-2.37041E+07 7.49892E+05-9.25019E+05-3.47834E+06
 -1      2171 5.31154E+04-3.88681E+05-1.07081E+07 1.70719E+05-1.38957E+06 9.46815E+05
 -1      2172-2.29981E+05 1.39868E+04-1.00253E+07-2.76724E+05-1.67787E+06 2.52590E+06
 -1      2173-1.89677E+05 5.49761E+04-7.90991E+05 8.79400E+04-6.91539E+05-6.96395E+05
 -1      2174-8.86602E+04 5.29227E+04-3.32636E+05-6.81285E+04-6.90825E+05-6.60735E+05
 -1      2175-1.62807E+05-2.39945E+05-5.74707E+06 2.60510E+05-2.44528E+06-2.59753E+06
 -1      2176 3.82202E+05 3.32081E+05-1.78356E+07-8.44083E+05-2.29707E+06-1.28215E+06
 -1      2177 5.28479E+05 2.05347E+06 1.20104E+07-2.74952E+05-4.06776E+06 2.24318E+06
 -1      2178-4.80892E+05-1.55904E+06 3.23287E+07-1.19023E+05-6.03568E+06 2.40733E+06
 -1      2179-1.09939E+05 1.21650E+04-1.05426E+06 1.52460E+04-5.68022E+05-6.13264E+05
 -1      2180-1.74118E+07 5.57644E+06-1.34796E+08 1.00660E+07 2.56715E+06-1.51436E+07
 -1      2181-7.05513E+05 2.73662E+05 4.15953E+05-1.90345E+05-1.30918E+06 4.18714E+05
 -1      2182-1.00435E+05-3.15772E+05-3.65119E+06-2.06238E+05-1.77487E+06-1.36067E+06
 -1      2183-1.09515E+05-7.13975E+03 4.55662E+04-5.11085E+03-3.49141E+05-4.16009E+05
 -1      2184 1.84077E+05-8.97806E+05 2.08697E+07 8.57410E+05-1.15824E+07-4.23274E+06
 -1      2185-1.18376E+06-8.69622E+05 6.65355E+06-7.40905E+05-2.81911E+06 3.27980E+06
 -1      2186 5.67347E+05-5.70003E+05-7.80508E+04 3.70604E+05-2.86468E+06 1.85622E+06
 -1      2187 1.60851E+07 1.64180E+07-3.49390E+07 5.68946E+06 1.27838E+05 8.48924E+06
 -1      2188-3.27181E+06-4.47720E+06-1.02647E+08-2.87037E+05-5.76134E+06-2.95259E+05
 -1      2189-8.78579E+05-1.10814E+05 3.19591E+06-1.87118E+05-1.26821E+06 1.02205E+06
 -1      2190-2.26958E+05 4.36533E+06-4.83555E+07-1.76900E+05-5.81267E+05 3.38340E+06
 -1      2191-4.02584E+07-1.74651E+06-2.99967E+08-1.89864E+06 6.66448E+06 2.91054E+07
 -1      2192 2.26849E+06-2.51678E+06 3.38856E+07-1.76790E+06-6.09765E+06 4.30573E+06
 -1      2193 1.18884E+06 1.57317E+06 6.06640E+07-1.16059E+06-8.08407E+06 6.77664E+06
 -1      2194 1.94416E+04-1.87188E+06-1.54609E+07-9.93727E+05-7.56029E+06 1.77510E+06
 -1      2195 3.28697E+05 3.71408E+05-6.16901E+05 3.28886E+04-1.51354E+06-1.16721E+06
 -1      2196-2.96852E+05 3.00587E+05 1.91102E+05-1.04170E+05-1.54458E+06-9.66264E+05
 -1      2197-1.03859E+06-1.31201E+06 4.04458E+06 3.21109E+05-5.12698E+06 1.72455E+06
 -1      2198-5.39428E+05-1.33734E+06 2.83275E+07-2.28052E+05-5.65040E+06 4.36948E+06
 -1      2199 3.39867E+04-3.60787E+05-3.43900E+07-5.37947E+05-5.13892E+06 2.39550E+06
 -1      2200 5.73500E+05 2.97220E+06 1.66333E+07-2.51208E+05-8.41679E+06-4.84286E+06
 -1      2201-3.83859E+06-5.84444E+06-9.70452E+07 5.81847E+05-1.59192E+06 3.87576E+06
 -1      2202-8.91402E+04 1.97889E+06-3.28693E+07-8.43901E+05-6.75238E+06 8.09975E+06
 -1      2203-8.57616E+06-1.22339E+05-2.28326E+08-8.68850E+05-1.40333E+06-1.22855E+06
 -1      2204-7.09044E+05-1.32911E+05 2.25827E+06 4.93851E+04-1.14932E+06 8.70121E+05
 -1      2205-2.26044E+05 7.74626E+03-3.82094E+06-2.10150E+04-1.19699E+06-9.63336E+05
 -1      2206-4.16128E+05-2.12929E+05 2.47453E+05-1.47863E+05-1.86830E+05 4.81921E+05
 -1      2207-3.41274E+05 7.03240E+04-2.31856E+05-1.48777E+05-2.02080E+05 6.45103E+05
 -1      2208-8.67939E+05 6.68624E+04-2.63919E+06-9.17991E+04-3.70765E+06 2.13021E+06
 -1      2209 5.98317E+05-7.24636E+04-2.87344E+07 4.37905E+04-2.01733E+05-3.92219E+06
 -1      2210-3.26154E+05 7.72398E+04 7.44808E+05-1.19757E+04 5.00264E+04-7.45238E+05
 -1      2211 2.52540E+05 2.35133E+05-4.01990E+06-2.29853E+05-1.78230E+06-1.14672E+06
 -1      2212-2.55019E+03 1.31835E+06 5.53826E+06-3.96066E+02-3.22532E+06 1.56188E+06
 -1      2213-1.15662E+06-1.48521E+06 1.94997E+07-2.24082E+05-3.61832E+06 2.02459E+06
 -1      2214-6.74740E+04-3.81423E+05-2.18725E+06-5.04522E+05-1.01826E+06 5.84806E+05
 -1      2215-3.39895E+05 7.09398E+05-5.96972E+06-4.53165E+04-1.19237E+06-3.19566E+05
 -1      2216 8.20498E+04 4.48777E+05-1.38636E+06-1.13046E+05-1.20261E+06 8.93564E+05
 -1      2217-4.74307E+05-5.70869E+05 1.51457E+06-2.79508E+05-9.70829E+05 1.70351E+06
 -1      2218 1.12751E+06 2.11247E+06 3.94113E+07 1.44251E+04-5.06693E+06 1.08796E+07
 -1      2219 5.47531E+05 6.04606E+05 1.06775E+05 2.54749E+05-1.29967E+06 2.91706E+06
 -1      2220-6.59981E+05 1.88247E+04 6.21398E+06 7.11775E+04-2.92955E+06 3.81584E+06
 -1      2221-9.98110E+05 1.00554E+06-1.41947E+07 7.16119E+05-5.62823E+06 6.58764E+06
 -1      2222-1.25703E+06-4.25435E+06-2.45637E+07-5.50113E+04-6.83600E+06 3.15856E+06
 -1      2223 2.80618E+06 4.86614E+05 3.97778E+07 6.34252E+05-4.21702E+06 8.69163E+06
 -1      2224 2.63929E+06 6.60037E+05 3.32880E+07 1.47634E+06-1.03359E+07-3.79944E+06
 -1      2225-1.00115E+06-5.73204E+05 4.82605E+06-2.61398E+05-1.81305E+06 1.97124E+06
 -1      2226-4.87352E+05-1.79877E+05-1.94391E+06-1.46102E+05-1.41874E+06-1.06305E+06
 -1      2227-4.99049E+06-3.10775E+06-1.95887E+08-3.90344E+05 3.50283E+05-2.96249E+06
 -1      2228-1.91528E+04 1.91730E+05-9.44389E+05-6.08233E+04-5.45041E+05-3.96557E+05
 -1      2229 5.80690E+05-1.97541E+06-1.32729E+07-7.11970E+06-7.90148E+06-2.97012E+06
 -1      2230-1.08991E+06 7.64996E+05 7.01949E+05 1.17067E+05-5.63882E+06 1.72381E+06
 -1      2231-3.07415E+05-1.03377E+06-2.15838E+06-2.02019E+05-1.02180E+06 1.59109E+06
 -1      2232-2.78999E+05 8.42387E+05 3.83926E+05-1.62368E+05-9.58026E+05 1.17364E+06
 -1      2233-4.76155E+05-9.47740E+03 4.07280E+05-1.42897E+05-9.78738E+05 8.68684E+05
 -1      2234 7.40353E+04 4.62171E+05-7.57625E+05 1.09623E+04-1.03462E+06 5.17022E+05
 -1      2235-1.14021E+06 5.15828E+05-4.56959E+07 6.08859E+04-9.51397E+06 2.08693E+06
 -1      2236-6.56006E+05 1.35759E+06-1.66475E+07-1.41008E+06-6.46132E+06 2.78232E+06
 -1      2237-3.81310E+05 1.06930E+06 2.59300E+07-4.76063E+05-4.72552E+06 3.85289E+06
 -1      2238-4.63773E+05 4.64344E+05 4.75932E+06-9.76006E+04-4.63133E+06 1.71474E+06
 -1      2239 1.50653E+06 5.71120E+05 1.39852E+07 4.54281E+05-4.18109E+06 2.51120E+06
 -1      2240-5.97336E+06 2.52019E+05-1.84614E+08 1.64077E+06-4.26649E+06-5.53082E+06
 -1      2241-1.98822E+06-1.26425E+06 2.01488E+07-5.63981E+05-4.51407E+06 9.53838E+05
 -1      2242-3.81320E+06 8.71205E+05-3.19061E+07-2.73024E+05-8.10418E+06 2.58977E+06
 -1      2243-5.97702E+05-2.61213E+06-5.55865E+06-1.52475E+05-7.37246E+06 2.89575E+06
 -1      2244-1.37467E+05-1.11549E+05 4.89145E+04-1.33801E+05-1.32209E+05 2.96202E+04
 -1      2245-7.90483E+05 8.16148E+05-5.59260E+06 3.54174E+05-5.13414E+06 5.94024E+06
 -1      2246 4.95567E+05 1.90723E+06 2.52824E+07 1.12367E+06-4.69031E+06 6.29200E+06
 -1      2247-7.72779E+05-5.62136E+05 2.36247E+06 1.44771E+05-3.83633E+06 1.33098E+06
 -1      2248-2.26869E+02 5.54521E+05-5.52964E+06 1.68285E+05-9.11818E+04-1.52585E+06
 -1      2249-5.13704E+05 7.19286E+05-4.32051E+06-3.74255E+05-2.81042E+06 2.29434E+06
 -1      2250-9.75269E+06-1.68722E+07-1.94568E+07-1.50943E+07 6.75272E+06-1.90031E+06
 -1      2251 1.95903E+06 3.09003E+06 1.07710E+07-1.76841E+07-8.45820E+06-3.64584E+04
 -1      2252-3.63884E+05 5.44844E+04 7.71963E+04-1.02198E+05-1.75315E+06 1.74978E+06
 -1      2253-1.78897E+05-8.67186E+05 1.25193E+07 1.13114E+05-5.08603E+06 4.98977E+05
 -1      2254-8.99435E+05-1.57521E+05-1.38367E+06 1.44714E+05-5.44662E+06 3.49640E+06
 -1      2255-8.32939E+05-3.18688E+04 2.05918E+06-2.39163E+05-2.02591E+06 1.28263E+06
 -1      2256-3.02530E+05-2.62599E+05 1.39803E+07 3.33893E+04-2.45622E+06 7.86588E+06
 -1      2257-2.65662E+06-8.38322E+05 1.07820E+07-1.28056E+06-3.23545E+06 5.02398E+06
 -1      2258-1.21948E+06 5.88571E+05-7.07924E+06 4.50333E+05-5.78045E+06 3.24473E+06
 -1      2259-1.16510E+06-9.87527E+03 8.07360E+04-2.36243E+05-2.15386E+05 5.32549E+05
 -1      2260-9.43911E+05-3.91754E+06-4.56516E+07-6.89825E+04-3.88766E+06 2.73652E+06
 -1      2261-1.45334E+06-2.83102E+06 2.73521E+07-9.12857E+05-6.37860E+06 6.22374E+06
 -1      2262-1.85154E+06-2.36647E+06 4.57032E+06-5.40028E+05-5.91405E+06 5.41556E+06
 -1      2263-3.15513E+06-2.69031E+05-1.05614E+08-6.10054E+05-7.36813E+06 1.00790E+06
 -1      2264-1.38051E+06-3.16892E+04 3.78260E+06-9.10685E+05-7.07378E+06 4.76204E+06
 -1      2265-1.05490E+06-2.70784E+06-6.37621E+07-5.16565E+05-3.68879E+06 3.60628E+06
 -1      2266-3.20772E+05-3.18043E+04-6.14993E+05-7.30427E+04-1.54316E+06 9.36886E+05
 -1      2267-8.36327E+05-2.37059E+05 2.87920E+07-1.18488E+05-5.82232E+06 3.53854E+05
 -1      2268-7.76856E+05-6.47802E+05 1.11529E+07 1.67422E+05-6.55581E+06 4.14588E+06
 -1      2269-3.64853E+05 6.86861E+05-5.46974E+06-3.96094E+05-3.70475E+06 3.75077E+06
 -1      2270 6.49820E+05 8.44781E+05-4.01334E+07 7.40292E+05-6.76618E+06 5.68476E+06
 -1      2271 4.24482E+05 1.67154E+06-8.79930E+06-4.71620E+04-5.05988E+06 3.28411E+06
 -1      2272-2.78735E+06-7.41556E+05 8.38546E+06-8.67715E+05-3.96164E+06 5.58298E+06
 -1      2273-7.35533E+05-9.89273E+05 3.64061E+06-5.50676E+05-2.18227E+06 3.53409E+06
 -1      2274 3.17660E+05-9.19673E+05-2.88736E+06 1.32759E+05-2.25936E+06 1.58777E+06
 -1      2275 1.61854E+06 3.13547E+06 1.65881E+07-9.98590E+05-2.90830E+06 7.87547E+06
 -1      2276-1.03115E+06-2.46531E+06-3.89841E+07-4.09219E+05-4.78443E+06 4.57277E+06
 -1      2277 4.95274E+05 4.70548E+05-4.10309E+07 1.59067E+06-4.67805E+06 5.99701E+06
 -1      2278 5.49017E+05-6.07408E+05 3.21976E+05-5.90245E+05-3.17132E+06 4.93738E+06
 -1      2279-7.05211E+05-8.40005E+04-7.85273E+06-7.08352E+03-4.40486E+06 4.25574E+06
 -1      2280 1.08358E+04-8.64239E+05 4.21583E+07-3.83576E+05-6.61510E+06 1.55377E+06
 -1      2281-4.78041E+05-2.31414E+06 2.35123E+07-1.15497E+06-5.49801E+06 8.46319E+06
 -1      2282 5.97050E+05-4.86613E+06 5.17253E+07-1.16555E+06-8.25591E+06 8.92250E+06
 -1      2283-5.51280E+05-8.84090E+05 1.55534E+07-3.15810E+05-4.12066E+06 3.15916E+06
 -1      2284 8.14609E+05 6.16809E+05 2.15624E+07-2.84752E+05-4.75954E+06 6.33322E+06
 -1      2285 5.65818E+05 2.91240E+06 2.55383E+04-2.97576E+05-2.71359E+06 5.27858E+06
 -1      2286-1.99171E+07-5.96788E+07 2.52028E+07-2.19710E+07 1.90013E+06 1.68279E+06
 -1      2287 3.54911E+07 4.86215E+06 1.32677E+08-1.75021E+07 3.03841E+06-2.99451E+06
 -1      2288 1.40638E+06 5.74747E+05 1.94122E+07-9.18902E+05-5.89443E+06 2.47088E+06
 -1      2289-9.37307E+04 2.81225E+05-9.11404E+05-2.41680E+05-1.17194E+06 5.81798E+05
 -1      2290-4.55734E+05-2.17095E+05-6.32267E+05-1.35415E+05-7.34810E+05 3.28477E+05
 -1      2291-2.35570E+06-9.08383E+05 4.92680E+06-7.67036E+04-5.70766E+06 4.22813E+06
 -1      2292-1.57613E+05 8.12843E+05-2.11793E+06-1.74401E+05-8.47375E+05 6.43045E+05
 -1      2293 4.95037E+05 8.25922E+05-6.97529E+07 1.66096E+06-3.11045E+06 3.76944E+06
 -1      2294-2.18431E+07-3.86311E+06-2.39172E+08-2.16556E+06 3.42946E+06 1.00550E+07
 -1      2295-5.71102E+06 5.28809E+06-1.09863E+08-8.42368E+05-7.00114E+05 9.47430E+06
 -1      2296 3.52678E+05 5.55658E+05-1.56117E+06 3.26464E+05-1.43406E+06 1.65925E+06
 -1      2297-6.55205E+07-7.72228E+07-1.64138E+08-2.24166E+07 4.77471E+06 6.14603E+06
 -1      2298 2.30041E+06-1.89238E+06 5.13175E+07-1.17379E+06-7.61208E+06 3.79311E+06
 -1      2299 8.60672E+05-2.22754E+06 3.76600E+07-1.41212E+06-5.07736E+06 6.01581E+06
 -1      2300-1.07236E+06-3.06551E+06-2.16589E+07-1.33680E+05-5.86517E+06 2.68617E+06
 -1      2301-1.66183E+07 8.14549E+02-2.23218E+08 3.24943E+05-1.33920E+06 5.35423E+06
 -1      2302 1.63664E+07 2.93392E+06 6.68588E+07-3.09561E+06-8.63923E+05 1.82655E+06
 -1      2303-7.78245E+05 5.35551E+05 1.61578E+07-1.38279E+05-5.65823E+06 6.08544E+06
 -1      2304-2.78101E+05-4.07509E+05 1.57735E+05-1.91234E+05-7.07533E+05 1.10824E+06
 -1      2305-2.81921E+02-6.20782E+04 1.21523E+05-4.56024E+02-5.42747E+05 4.61411E+05
 -1      2306-2.54486E+05-2.49768E+05 2.14432E+06-2.23510E+05-1.60730E+06 3.12635E+06
 -1      2307-1.12055E+06-5.52029E+04 2.18677E+05-1.60420E+05-2.23202E+05 9.37576E+04
 -1      2308-7.84333E+06-2.11419E+06-1.37755E+08-2.42563E+06-3.07037E+06 7.48880E+06
 -1      2309 9.88192E+06-1.27900E+06 4.45089E+07-1.07789E+07-9.91319E+05-3.96750E+06
 -1      2310-5.84861E+06-1.05508E+07-7.70172E+07-4.71274E+06-1.28387E+05 3.87111E+06
 -1      2311 2.31483E+06 4.88528E+06-4.44096E+07 1.17435E+06-4.17656E+06 2.25607E+06
 -1      2312-1.87011E+06-4.39574E+06-7.17730E+07-5.03641E+05-4.57636E+06 2.32857E+06
 -1      2313 2.63942E+07-2.12492E+06 6.56896E+07-6.47076E+06-1.49837E+06-6.58060E+06
 -1      2314-3.30271E+05-1.36430E+06 2.15278E+07-2.53822E+05-5.55467E+06 6.29563E+06
 -1      2315 1.16544E+06 4.11894E+05 5.03906E+06-3.11963E+05-2.69959E+06 5.15314E+06
 -1      2316-4.92436E+05-1.41033E+06 1.10797E+07-1.99394E+05-3.78311E+06 4.59216E+06
 -1      2317 6.74083E+05 3.07429E+05 1.92808E+06-5.88814E+04-1.67621E+06 3.74968E+06
 -1      2318-5.73780E+06 4.91388E+06-4.88237E+07-1.96600E+06-5.67822E+06 6.89768E+06
 -1      2319-4.07091E+05-9.35511E+03-4.08449E+06 1.12695E+05-4.14147E+06 2.44894E+06
 -1      2320 1.09021E+07-1.91855E+06 4.44641E+07-2.73639E+06-1.47191E+06 8.63016E+05
 -1      2321-1.18753E+06 3.48632E+05 3.73356E+06-5.39912E+05-2.73611E+06 4.61848E+06
 -1      2322-1.19621E+06 5.00699E+05 7.71814E+06-4.71904E+05-3.79280E+06 5.95356E+06
 -1      2323-7.07823E+05-1.29385E+05 4.11726E+05-1.15925E+05-6.24039E+05 9.55752E+05
 -1      2324-1.90422E+06-1.42526E+06 8.86944E+06-5.36130E+04-4.04144E+06 5.14127E+06
 -1      2325-4.15803E+05-1.09217E+06 1.27148E+07-3.32670E+05-4.62101E+06 5.19437E+06
 -1      2326 1.42575E+06 2.35646E+05 2.28180E+06 1.80693E+05-3.67671E+06 4.00358E+06
 -1      2327-2.39223E+06-9.28192E+05 4.61692E+06-6.06942E+05-3.17968E+06 4.20495E+06
 -1      2328-3.85954E+05 4.02583E+05 5.97740E+06 1.25409E+05-2.80460E+06 5.43394E+06
 -1      2329 7.11620E+04 7.29356E+05-2.25468E+06 1.09198E+05-6.46118E+05 1.56409E+06
 -1      2330-1.06504E+06 2.08170E+04-2.05201E+05-1.86848E+05-2.01322E+05-5.37752E+04
 -1      2331 1.74237E+06 2.52603E+05 8.00817E+06 6.19802E+05-3.75173E+06 4.67581E+06
 -1      2332 1.10778E+06-6.71297E+04 3.77736E+06 4.07900E+05-2.50543E+06 3.27828E+06
 -1      2333-9.97829E+05 8.42344E+04-5.07514E+06-6.85521E+04-3.11181E+06 3.13168E+06
 -1      2334-7.29671E+04-5.19990E+05-5.68213E+07 1.20347E+06-6.24263E+06 1.34563E+06
 -1      2335-2.46532E+05 5.71224E+05-5.76392E+05-8.78586E+04-6.80373E+05 1.43193E+06
 -1      2336-1.95182E+05 3.43078E+05-4.98424E+06-1.97824E+05-2.51828E+06 2.19990E+06
 -1      2337-7.03189E+05 6.46880E+05-8.62243E+06 5.80830E+04-1.69100E+06-5.43024E+04
 -1      2338 2.13331E+05-6.37897E+04 3.38526E+06-1.08829E+05-1.29618E+06 4.29394E+06
 -1      2339 9.59208E+05 5.64618E+05 2.51584E+06-5.28953E+05-2.41264E+06 4.14003E+06
 -1      2340-2.61581E+05 3.87245E+05-1.34680E+06 1.17058E+04-4.28541E+05-4.48354E+04
 -1      2341-2.96647E+05 1.75516E+05-4.54309E+05-8.79831E+04-1.77171E+05 3.64039E+05
 -1      2342-1.09929E+06 1.57089E+05 6.54567E+06-4.72258E+05-2.97707E+06 5.35810E+06
 -1      2343-4.34979E+05-2.29808E+05-1.55865E+07 9.88234E+04-2.24470E+06 9.99281E+05
 -1      2344-1.08478E+06 2.84549E+06-7.16083E+07 1.48556E+06-4.30541E+06 1.58538E+06
 -1      2345-2.82664E+07-9.66252E+07 2.60486E+07 2.97607E+07-3.93087E+05 9.58309E+06
 -1      2346-4.45635E+07 8.54857E+06-2.35174E+08-3.16218E+06 1.91881E+07 4.10853E+07
 -1      2347-1.31577E+05 1.61691E+05 4.81082E+05-1.50705E+05-1.26459E+05-7.16160E+05
 -1      2348-1.95467E+05 4.56938E+04-3.35024E+05-1.40166E+05-2.00709E+05 8.15568E+04
 -1      2349-2.81124E+05-5.60778E+06-1.36167E+07-2.14420E+06-2.10662E+06 5.66480E+06
 -1      2350-1.83440E+06-2.25294E+05-3.09733E+07 5.71979E+05-6.14013E+06 1.01181E+06
 -1      2351-9.54656E+05-1.60189E+06-1.43814E+08 1.18036E+05-1.57058E+06-8.81971E+06
 -1      2352 3.54128E+05 1.46955E+05-7.42938E+06-2.58665E+05-1.61116E+05-1.83359E+06
 -1      2353-2.53747E+05 2.19416E+05-1.20420E+07 1.60613E+05-5.03303E+04-2.88314E+06
 -3
    1PSTEP                         3           1           1          
  100CL  101 1.000000000        2353                     0    1           1
 -4  TOSTRAIN    6    1
 -5  EXX         1    4    1    1
 -5  EYY         1    4    2    2
 -5  EZZ         1    4    3    3
 -5  EXY         1    4    1    2
 -5  EYZ         1    4    2    3
 -5  EZX         1    4    3    1
 -1         1 3.26382E-02-2.27019E-02-9.20510E-01-6.52467E-02 1.14084E+00-4.12810E-01
 -1         2 5.79562E-05-1.77205E-04 2.75071E-04-5.24224E-05-1.21976E-04 2.50763E-04
 -1         3 2.43679E-04-3.58378E-04 4.45415E-04-1.32278E-04 3.35241E-04-2.28473E-04
 -1         4 5.04444E-02 6.21309E-03-4.98752E-01 5.95759E-02 7.17656E-01 1.23814E-01
 -1         5-2.19086E-04-6.29933E-04 1.76063E-03-2.61010E-04-1.63465E-04-1.53707E-03
 -1         6 9.47108E-02 9.34033E-02-5.28028E-01 9.54720E-02 8.66740E-01 1.23776E-01
 -1         7 3.73238E-01 3.51134E-01-9.99452E-01 2.41179E-02 4.41365E-01-1.51906E-02
 -1         8 4.92058E-01 3.67455E-01-1.43298E+00-1.73845E-02 2.89793E-01 6.35896E-02
 -1         9 2.18832E-01 1.92767E-01-8.30539E-01 2.05592E-02 1.40777E-01-5.73982E-02
 -1        10 3.02533E-01 2.43191E-01-8.97757E-01 4.56650E-04-1.79879E-02 2.63585E-02
 -1        11 3.29079E-01 2.94073E-01-1.01949E+00-2.55832E-02-5.34219E-02-3.07605E-02
 -1        12 3.47467E-01 3.72479E-01-1.09090E+00-3.81889E-02-8.05444E-02-3.54654E-02
 -1        13 2.78239E-01 2.71113E-01-8.71035E-01 1.09758E-02-3.33938E-02-1.47050E-02
 -1        14 1.79628E-01 1.24559E-01-6.49091E-01-3.41425E-02-2.04123E-02 4.90476E-02
 -1        15 2.43723E-01 2.45949E-01-7.26804E-01 7.25703E-04-1.79555E-02 2.92542E-03
 -1        16 2.00456E-01 1.85185E-01-6.47142E-01 1.07995E-02-4.85504E-02-1.75884E-02
 -1        17 1.81766E-01 1.95446E-01-6.24891E-01-1.31954E-02-5.78996E-02 3.41880E-02
 -1        18 1.45671E-01 1.15563E-01-4.69347E-01 2.33201E-03-4.77681E-02 1.52049E-02
 -1        19 1.41762E-01 1.46989E-01-4.83812E-01 3.75318E-03-7.55602E-02-2.86468E-02
 -1        20 1.33912E-01 1.30907E-01-4.39532E-01-5.21910E-03-4.59475E-02 1.97134E-02
 -1        21 1.08982E-01 1.17344E-01-3.83676E-01-1.69458E-03-5.49414E-02 4.82807E-03
 -1        22 1.00251E-01 9.12196E-02-3.19610E-01-4.18924E-03-4.05023E-02 2.12658E-02
 -1        23 8.09672E-02 8.74778E-02-2.86296E-01 1.27002E-03-5.28712E-02-5.58818E-03
 -1        24 7.52426E-02 7.37250E-02-2.47459E-01-3.63186E-03-3.55405E-02 1.53925E-02
 -1        25 5.93029E-02 6.37831E-02-2.08928E-01-1.13196E-03-3.83011E-02 5.55161E-03
 -1        26 5.16468E-02 4.73917E-02-1.66229E-01-2.51348E-03-2.90884E-02 1.34015E-02
 -1        27 4.02019E-02 4.27668E-02-1.41166E-01 7.35422E-04-3.44975E-02 2.23482E-03
 -1        28 2.32745E-02 1.25220E-02-7.73290E-02 1.25708E-03-3.07968E-02 1.40459E-02
 -1        29 4.34591E-02 4.04134E-02-1.25982E-01-2.79622E-03-2.48485E-02 6.01103E-03
 -1        30 1.20559E-02 8.31246E-03-4.25057E-02-7.83011E-04-1.84575E-02 4.11071E-03
 -1        31 1.31739E-02 9.38405E-03-4.01440E-02-1.64025E-03-1.58276E-02-5.60050E-03
 -1        32 1.17222E-02 1.18533E-02-3.72334E-02-6.30155E-04-1.12039E-02 2.25242E-03
 -1        33 4.69218E-03 3.52804E-03-1.51336E-02-2.80461E-04-8.39830E-03 1.32364E-03
 -1        34 2.99258E-03 1.05866E-03-7.09572E-03-2.31848E-04-5.93698E-03-1.60869E-03
 -1        35 4.81956E-04 2.33719E-04-1.49224E-03-3.33337E-04-2.80393E-03-9.71973E-04
 -1        36 3.47083E-01 1.04667E-01-9.75853E-01 6.90995E-02 8.38438E-01-2.72557E-01
 -1        37 5.28248E-01 4.17129E-01-1.42209E+00-7.59139E-02 4.47959E-01 1.26070E-01
 -1        38 1.88855E-01 2.80278E-01-9.29753E-01-6.56713E-02 2.49823E-01 4.03472E-02
 -1        39 3.33872E-01 2.53217E-01-1.10593E+00-4.83697E-02 1.55501E-02 5.82228E-02
 -1        40 3.18871E-01 2.11226E-01-9.55868E-01-6.06748E-02-9.75117E-02 1.29005E-01
 -1        41 3.44851E-01 9.00515E-02-7.66890E-01-4.88244E-02-1.24666E-01-9.69824E-03
 -1        42 2.99895E-01 3.16732E-01-9.74092E-01-3.93505E-02-5.62088E-02-1.62259E-01
 -1        43 2.85212E-01 1.97177E-01-7.92701E-01-2.09627E-02-6.84713E-02-4.50449E-02
 -1        44 2.30617E-01 2.08780E-01-6.85265E-01-6.20542E-02-9.30356E-03-4.32219E-02
 -1        45 2.24640E-01 1.89100E-01-6.21728E-01-2.08126E-02-5.95402E-02-6.94937E-02
 -1        46 2.25118E-01 1.79462E-01-6.77901E-01-3.62022E-02-7.70913E-02-2.40715E-02
 -1        47 1.72073E-01 1.51069E-01-5.20061E-01-3.00987E-02-7.39501E-02-3.42605E-02
 -1        48 1.50031E-01 1.02923E-01-4.10381E-01-2.67063E-02-8.42985E-02-3.20436E-02
 -1        49 1.60423E-01 1.43966E-01-5.00424E-01-2.65818E-02-8.51030E-02-4.73212E-02
 -1        50 1.26717E-01 1.02467E-01-3.54739E-01-2.41675E-02-7.03470E-02-8.99697E-03
 -1        51 1.23089E-01 1.06121E-01-3.64511E-01-2.27701E-02-6.53923E-02-1.37915E-02
 -1        52 9.27125E-02 7.01451E-02-2.50708E-01-1.83926E-02-6.19588E-02-6.01051E-03
 -1        53 9.09932E-02 8.24924E-02-2.80402E-01-1.64918E-02-6.08086E-02-1.86260E-02
 -1        54 7.13872E-02 5.76856E-02-1.97636E-01-1.35805E-02-4.93198E-02-1.37093E-03
 -1        55 6.59494E-02 5.72860E-02-1.93933E-01-1.24158E-02-4.42649E-02-4.02437E-03
 -1        56 4.77824E-02 3.65543E-02-1.29599E-01-9.14102E-03-4.07971E-02 9.47715E-04
 -1        57 3.87824E-02 4.66180E-02-1.45519E-01-8.93576E-03-4.28724E-02 6.04920E-03
 -1        58 2.53310E-02 1.82735E-02-7.38945E-02 1.69549E-03-2.82838E-02 2.64618E-02
 -1        59 3.07140E-02 2.74251E-02-8.09704E-02 9.54250E-04-2.92559E-02 6.08636E-04
 -1        60 1.09252E-02 5.43419E-03-3.72818E-02-4.08129E-03-1.99663E-02 3.11846E-03
 -1        61 1.15277E-02 1.00495E-02-4.39132E-02-2.31769E-03-1.59307E-02-7.02436E-04
 -1        62 8.45699E-03 6.30410E-03-2.42086E-02-5.25258E-04-1.10419E-02-4.51484E-04
 -1        63 5.01222E-03 2.10567E-03-9.61242E-03-7.09394E-04-7.49765E-03-6.99048E-04
 -1        64 2.27793E-03 8.75005E-04-5.26263E-03-3.30642E-04-5.22303E-03-6.19681E-04
 -1        65 1.39065E-04-1.78054E-04-1.75511E-04-3.04811E-04-1.46373E-03-2.73141E-04
 -1        66-1.83720E-03 5.36813E-04 4.85117E-04-1.85153E-04-1.38048E-04-1.44709E-03
 -1        67-6.85299E-03 1.74787E-03 3.01909E-03-9.88612E-04-7.36666E-05 9.95228E-05
 -1        68-8.44595E-03 2.10932E-03 4.10010E-03-2.24470E-03-2.07835E-05 6.56067E-03
 -1        69-7.20250E-04-2.44722E-04-1.04207E-04-2.55609E-03-8.74336E-04 1.17016E-02
 -1        70 4.26658E-03-6.19481E-04-2.71719E-03-3.88972E-03 1.04016E-05 6.94137E-03
 -1        71-6.21944E-04 2.19188E-04 2.96390E-04-1.89194E-05-4.63310E-05-6.61453E-04
 -1        72-4.24848E-03 1.03214E-03 1.50937E-03-7.18287E-04-7.31612E-05-5.73822E-04
 -1        73-7.29585E-03 2.16521E-03 3.11647E-03-1.48882E-03-2.16209E-04 2.53133E-03
 -1        74-3.93248E-03 1.00624E-03 1.68428E-03-1.37662E-03-2.84002E-04 7.88729E-03
 -1        75 9.75394E-04-5.21924E-04-1.43452E-03-3.02177E-03-3.70338E-05 8.75809E-03
 -1        76 3.27529E-03-4.30920E-04-1.29292E-03-2.39520E-03 7.37325E-04 3.15494E-03
 -1        77 2.36343E-01 2.18932E-01-7.07172E-01-4.31607E-02-9.55996E-02-2.52371E-02
 -1        78 2.06428E-01 1.88222E-01-6.53651E-01-2.47575E-02-1.56219E-02 8.46442E-03
 -1        79 1.70282E-01 1.67147E-01-5.61214E-01 2.09073E-03-6.72127E-03 1.06782E-02
 -1        80 1.38017E-01 1.47686E-01-4.80660E-01 3.88831E-03-7.29265E-03 1.96912E-02
 -1        81 1.13384E-01 1.18913E-01-3.93061E-01 7.18985E-03-8.77203E-03 1.29628E-02
 -1        82 9.59714E-02 9.54554E-02-3.26342E-01 5.70054E-03-4.52431E-03 1.96838E-02
 -1        83 7.52895E-02 7.70031E-02-2.61867E-01 8.78754E-03 5.70461E-03 2.00989E-02
 -1        84 5.39492E-02 5.47059E-02-1.87281E-01 2.60552E-03-1.76452E-03 1.27136E-02
 -1        85 4.06089E-02 3.90850E-02-1.33827E-01 3.55692E-03-5.49913E-03 9.50917E-03
 -1        86 3.18002E-02 2.75115E-02-9.80428E-02 5.35780E-03-1.21424E-02 7.09849E-03
 -1        87 1.99995E-02 2.05516E-02-6.89069E-02 2.75254E-03-5.98954E-03 8.22284E-03
 -1        88 1.21110E-02 1.18675E-02-3.96376E-02 2.04656E-03-2.26294E-03 3.28677E-03
 -1        89 5.89208E-03 6.55472E-03-2.13719E-02 4.82684E-04-1.39677E-03 5.28208E-03
 -1        90 1.68174E-03 6.42707E-04-4.18582E-03 8.88438E-04-2.10592E-03 2.39137E-03
 -1        91 1.83700E-01 2.24903E-01-7.59924E-01 4.66382E-02 2.35806E-01 3.66282E-02
 -1        92 2.14899E-01 1.80249E-01-6.63698E-01-1.94901E-02 6.40296E-02-9.50158E-03
 -1        93 1.94377E-01 1.93030E-01-6.39049E-01-1.40676E-02-2.84277E-02 1.29952E-02
 -1        94 1.64559E-01 1.46515E-01-5.38179E-01-1.34867E-02-9.69013E-03 9.93787E-03
 -1        95 1.15778E-01 1.65330E-01-4.63861E-01-2.06914E-03-4.08023E-03 1.22194E-02
 -1        96 1.07011E-01 1.15914E-01-3.75470E-01-7.85473E-03-1.70435E-02 1.33543E-02
 -1        97 8.01723E-02 1.06086E-01-3.02054E-01-1.01537E-02-1.20185E-02 1.67617E-02
 -1        98 5.79932E-02 8.11200E-02-2.34082E-01 5.00306E-03-1.00009E-03 1.49352E-02
 -1        99 4.09455E-02 6.74873E-02-1.80163E-01 3.74248E-03-9.00385E-03 1.34895E-02
 -1       100 2.93081E-02 5.06169E-02-1.32213E-01-1.90251E-03-7.40783E-03 9.22397E-03
 -1       101 2.77114E-02 2.23820E-02-8.71052E-02-2.45759E-03-1.23750E-02 5.86822E-03
 -1       102 1.33281E-02 2.24238E-02-5.84866E-02 4.92019E-04-4.03729E-03 6.12416E-03
 -1       103 1.12177E-02 4.67670E-03-2.93655E-02 6.40134E-04-3.93905E-03 4.30171E-03
 -1       104 2.46674E-03 3.42938E-03-1.27813E-02 1.36982E-04 5.66492E-05 3.74393E-03
 -1       105 9.47588E-04-1.15842E-04-1.74262E-03 5.43127E-04-9.39638E-04 1.35368E-03
 -1       106-1.07228E-01 1.59305E-02 1.82858E+00 2.75093E-02 2.62340E-01 6.82384E-01
 -1       107-2.99453E-02-5.91448E-01 3.81196E+00 5.14333E-02-1.54128E-01 3.58393E-01
 -1       108-7.37257E-02-3.59744E-01 4.19656E+00-1.61529E-01-5.81184E-01-4.08020E-02
 -1       109-2.68151E-02-6.17847E-04 2.82657E+00-4.81904E-03-3.40169E-01-2.78432E-01
 -1       110-1.68387E-04 4.30700E-04 8.69431E-01-2.40518E-05 2.26369E-01-1.22370E-01
 -1       111 8.53924E-02 1.66068E-02 5.98885E-01 5.67866E-02 8.37877E-01 3.54409E-01
 -1       112 3.61486E-03 1.19199E-02 2.79645E+00-7.65281E-03-3.11023E-01 4.78708E-01
 -1       113-7.26230E-04 1.31613E-02 4.13386E+00 1.26874E-03-6.72407E-01 1.63744E-01
 -1       114 1.18883E-03 5.38323E-03 3.61359E+00 2.94037E-03-6.22567E-01-1.79253E-01
 -1       115 1.63124E-03-6.76250E-04 1.78460E+00-9.69943E-05-6.64726E-02-2.45418E-01
 -1       116-1.13382E-03 7.34113E-05-1.86007E-01 1.79939E-03 5.64358E-01-2.38851E-02
 -1       117 7.71906E-05-5.02532E-04 1.26586E-03-3.48969E-04-8.38964E-05-8.73750E-04
 -1       118 2.40358E-01 2.92388E-01-9.16185E-01 4.73843E-04-1.56042E-02 2.93674E-02
 -1       119 2.24358E-01 2.85585E-01-8.76877E-01-8.70458E-03 2.80279E-02 3.40343E-02
 -1       120 2.08440E-01 2.24759E-01-7.23949E-01-3.14478E-03-9.07996E-03 9.02548E-05
 -1       121 1.62378E-01 1.95289E-01-6.06434E-01-3.44028E-03 1.81075E-02-5.98632E-03
 -1       122 1.37370E-01 1.54417E-01-4.87441E-01-3.84799E-03-2.34970E-04-1.08489E-02
 -1       123 1.03226E-01 1.27753E-01-3.94706E-01-5.77875E-03 7.70341E-03-6.77704E-03
 -1       124 9.09024E-02 9.84851E-02-3.21088E-01 3.56820E-08-5.83340E-04 3.82226E-03
 -1       125 7.34235E-02 6.26894E-02-2.31760E-01-1.23105E-03-4.24477E-03-8.87720E-03
 -1       126 5.24702E-02 4.37341E-02-1.64601E-01 1.10595E-03-1.09810E-02-7.93931E-03
 -1       127 4.21668E-02 2.77828E-02-1.15866E-01-9.02996E-05 8.26046E-04-1.16682E-02
 -1       128 2.27202E-02 2.56399E-02-8.08831E-02-8.86028E-04 3.09100E-03-2.43597E-03
 -1       129 1.51147E-02 1.21572E-02-4.34772E-02-5.00331E-04 8.82919E-04-3.06357E-03
 -1       130 6.41654E-03 6.37675E-03-2.15308E-02-9.03380E-04 8.95108E-04 8.98600E-04
 -1       131 1.71144E-03-7.15735E-04-2.26912E-03 2.62373E-04 9.12462E-05 5.80741E-05
 -1       132 2.10379E-01 2.64904E-01-8.54103E-01-1.45798E-03-5.65863E-02 9.69575E-02
 -1       133 2.29586E-01 2.88925E-01-8.68167E-01-3.03515E-03-2.07607E-02 3.89360E-02
 -1       134 2.17121E-01 2.55844E-01-8.11395E-01-6.50274E-04-1.19603E-02 2.07922E-02
 -1       135 1.97124E-01 2.09022E-01-6.64483E-01-1.56202E-03-2.19753E-02-1.31816E-03
 -1       136 1.45660E-01 1.73728E-01-5.61548E-01-1.97516E-03-1.44829E-02-5.90698E-03
 -1       137 1.27142E-01 1.41679E-01-4.53571E-01 4.86165E-03-1.30003E-02-5.67636E-03
 -1       138 9.54094E-02 1.12647E-01-3.59581E-01 3.54633E-04-4.06728E-03 9.82709E-05
 -1       139 7.48750E-02 9.25466E-02-2.82967E-01-3.31892E-03 7.49563E-03-1.15595E-03
 -1       140 5.74485E-02 6.36876E-02-2.12806E-01-1.26310E-02 6.64881E-04-9.57005E-04
 -1       141 3.85213E-02 4.41559E-02-1.55195E-01 4.04658E-04 6.11892E-03-3.90005E-03
 -1       142 3.37733E-02 2.71627E-02-9.99658E-02 1.44368E-03-2.34656E-03-5.08922E-03
 -1       143 1.65809E-02 2.02283E-02-6.53429E-02-1.27592E-05-1.02970E-03-1.35618E-03
 -1       144 1.27757E-02 7.40741E-03-3.12451E-02 8.32881E-04-1.37475E-03-8.16348E-04
 -1       145 3.85756E-03 1.73914E-03-1.11546E-02 4.18603E-04 1.17429E-04 4.60821E-04
 -1       146 7.30578E-04-4.47421E-04-3.65266E-04 2.25380E-04-4.53838E-05-2.85590E-04
 -1       147 6.21013E-02 2.58872E-02-3.63633E-01 1.06984E-01 1.34130E+00 8.40279E-02
 -1       148 1.06157E-01 3.74679E-01-2.83295E+00 8.25946E-02 1.77970E-01-6.15607E-01
 -1       149 4.90581E-03 1.59937E-01-3.45456E+00-5.62046E-02-5.39006E-01-2.37985E-01
 -1       150 8.11203E-02 5.46383E-01-3.85088E+00 1.16056E-01-1.99434E-01 1.80146E-02
 -1       151 1.24519E-02 5.25524E-01-2.69528E+00-2.73643E-02-1.47059E-02 1.90033E-01
 -1       152-2.40514E-03 1.63267E-01-1.23200E+00 4.61578E-03 1.74408E-01 1.25244E-01
 -1       153-1.04298E-01 1.23519E-02-2.03021E+00 2.71031E-02 6.33851E-01-7.98614E-01
 -1       154 2.62588E-03-3.22295E-03-3.02601E+00 1.80696E-03-3.73865E-01-3.60751E-01
 -1       155-1.77575E-04-5.67844E-03-3.77800E+00-1.01528E-03-7.48225E-01-1.26643E-01
 -1       156-4.27695E-04-2.42527E-03-3.40832E+00 1.15751E-03-4.88295E-01 1.29428E-01
 -1       157-2.54596E-03 3.83531E-01-1.81982E+00 5.69906E-03 8.77166E-02 1.50477E-01
 -1       158 2.51626E-03 1.63130E-02-6.12014E-01-1.25320E-02 5.93333E-01 1.38230E-01
 -1       159 8.55988E-04-5.85867E-05-2.81091E-04 3.35365E-04 4.99227E-04 1.39552E-03
 -1       160-8.35403E-04 2.46336E-04 3.31038E-04-8.88693E-04 1.99423E-04-7.44448E-04
 -1       161-5.65296E-03 3.74657E-03-9.60543E-04-3.00094E-03 2.70263E-04-5.98846E-03
 -1       162-1.08966E-02 4.23697E-03 2.90899E-03-4.72847E-03 1.24318E-03-9.91416E-03
 -1       163-8.37860E-03 2.63463E-03 3.16805E-03-2.29487E-03 2.52753E-05-5.29766E-03
 -1       164 5.13888E-04 1.03195E-04-2.07402E-04 2.31019E-04 1.88790E-04 6.26607E-04
 -1       165 1.40079E-04-2.49336E-05 1.28892E-04-1.85782E-05 1.19086E-04 5.55023E-04
 -1       166-3.76245E-03 1.55276E-03 9.58687E-04-1.90451E-03 8.07257E-04-2.49951E-03
 -1       167-9.10700E-03 3.72021E-03 2.07294E-03-3.11613E-03-7.74631E-04-6.88686E-03
 -1       168-8.82062E-03 1.94411E-03 4.31473E-03-4.43192E-03 6.27878E-04-7.03648E-03
 -1       169-4.64538E-03 1.55977E-03 2.39546E-03-7.43723E-04-4.12742E-04-3.44669E-03
 -1       170-7.26156E-02-6.92206E-02 2.33778E-01-1.12212E-04-1.99697E-02-3.73236E-02
 -1       171-5.24176E-02-4.24497E-02 1.64326E-01-3.46259E-03-1.66637E-02-3.52289E-02
 -1       172-8.42207E-01-1.11940E+00 3.45322E+00 1.28261E-02-6.47575E-02 1.18893E-01
 -1       173-7.40543E-01-1.12117E+00 3.35125E+00-7.28998E-03-7.05142E-02 8.96418E-02
 -1       174-8.34699E-01-1.03106E+00 3.23800E+00 2.14435E-03-6.71575E-02 8.59329E-02
 -1       175-7.22302E-01-9.46194E-01 2.92486E+00-7.01576E-03-6.34790E-02 9.53211E-02
 -1       176-3.80028E-02-3.11805E-02 1.12305E-01-3.84828E-04-1.08221E-02-1.49327E-02
 -1       177-2.96481E-02-2.63762E-02 8.73444E-02 2.46463E-04-7.28271E-03-2.42857E-03
 -1       178-2.22450E-02-1.75037E-02 6.28235E-02-1.12676E-04-8.76863E-03-1.56426E-02
 -1       179-5.74874E-02-4.97575E-02 1.75760E-01-6.49853E-04-1.25017E-02-1.03954E-02
 -1       180-4.59309E-02-3.61093E-02 1.33739E-01 2.99572E-04-1.09670E-02 1.62891E-02
 -1       181-1.10105E-01-9.98208E-02 3.45010E-01-5.87917E-04-2.07631E-02 4.71306E-02
 -1       182-7.25016E-02-7.22159E-02 2.39722E-01 6.12801E-04-1.96041E-02 7.90859E-02
 -1       183-5.79974E-02-5.32033E-02 1.84130E-01-1.85266E-03-1.73782E-02 6.19920E-02
 -1       184-6.01615E-01-9.56535E-01 2.84190E+00-2.14682E-02-5.96171E-02 3.03623E-02
 -1       185-5.03767E-01-1.23818E+00 3.39815E+00-4.58129E-02-8.43553E-02-5.18828E-02
 -1       186-1.78767E-01-1.74853E-01 5.84776E-01-1.43489E-03-2.61034E-02 6.53196E-02
 -1       187-1.21557E-01-1.29310E-01 4.13336E-01 8.85835E-04-2.25712E-02 1.09636E-01
 -1       188-1.24009E-01-1.19433E-01 4.03481E-01-5.61189E-04-1.88110E-02 7.74899E-02
 -1       189-7.37671E-01-1.28016E+00 3.73036E+00 1.85691E-02-8.90426E-02 1.48069E-01
 -1       190-3.33374E-01-3.29617E-01 1.10518E+00-1.86747E-03-3.22418E-02 1.34481E-01
 -1       191-4.29271E-01-4.41423E-01 1.44511E+00-1.38980E-04-3.82667E-02 1.35827E-01
 -1       192-2.92717E-01-2.79488E-01 9.62389E-01-2.79272E-03-3.58099E-02 1.74610E-01
 -1       193-4.14140E-01-4.07420E-01 1.36554E+00 2.60749E-03-3.72885E-02 8.08871E-02
 -1       194-3.36596E-01-3.31287E-01 1.11147E+00-3.53746E-03-3.80129E-02 8.77673E-02
 -1       195-2.40860E-01-2.44381E-01 8.03372E-01-7.08123E-04-3.31097E-02 1.55078E-01
 -1       196-2.55222E-01-2.58636E-01 8.50344E-01 1.80972E-03-3.05807E-02 1.13138E-01
 -1       197-1.84870E-01-1.78686E-01 6.07150E-01-2.06894E-03-2.46938E-02 1.02823E-01
 -1       198-1.65772E-01-1.71485E-01 5.57118E-01-3.58693E-04-2.81928E-02 1.35574E-01
 -1       199-2.37939E-01-2.29456E-01 7.73989E-01 1.15826E-03-2.74239E-02 6.16903E-02
 -1       200-4.34360E-01-6.84783E-01 2.04461E+00-2.25519E-02-2.77158E-02-1.95622E-02
 -1       201-3.23495E-01-4.19373E-01 1.30512E+00-1.80556E-02-3.09589E-02 1.01947E-01
 -1       202-5.56343E-01-7.29946E-01 2.27061E+00-1.27225E-02-5.01843E-02 8.71265E-02
 -1       203-5.30941E-01-5.43857E-01 1.79815E+00-1.20835E-03-4.25354E-02 1.01527E-01
 -1       204-3.89073E-01-3.87126E-01 1.29983E+00 1.37023E-03-3.50936E-02 1.81686E-01
 -1       205-1.41311E-01-3.12054E-01 8.50309E-01-7.11771E-03-5.78140E-03-2.76919E-02
 -1       206-6.05184E-01-6.31534E-01 2.07447E+00-2.53291E-03-4.82576E-02 1.18530E-01
 -1       207-4.75375E-01-5.16191E-01 1.65532E+00-4.56753E-03-4.83931E-02 1.77171E-01
 -1       208-5.01959E-01-5.10080E-01 1.69626E+00-1.89937E-03-3.98806E-02 1.66724E-01
 -1       209-7.01482E-01-7.75673E-01 2.51598E+00-2.20747E-03-4.73811E-02 1.14989E-01
 -1       210-5.38047E-01-5.96726E-01 1.93739E+00-6.39370E-03-5.08532E-02 1.63100E-01
 -1       211-5.93263E-01-6.41146E-01 2.08377E+00 1.87181E-03-3.34061E-02 1.51421E-01
 -1       212-2.68096E-02-3.27274E-02 9.78312E-02 1.47986E-04-1.13574E-02 6.50174E-02
 -1       213-3.84867E-02-4.19241E-02 1.35849E-01 1.55212E-03-1.36438E-02 7.96135E-02
 -1       214-6.50598E-01-7.72701E-01 2.45915E+00-7.31046E-03-5.97331E-02 1.27395E-01
 -1       215-2.46238E-02-2.23039E-02 7.47528E-02-1.65639E-03-8.98442E-03-2.29692E-02
 -1       216-3.87111E-02-3.44049E-02 1.17965E-01-7.97570E-04-1.21995E-02-2.69241E-02
 -1       217-1.88052E-01-5.91695E-01 1.53803E+00-4.17341E-02 2.38877E-02-2.27327E-01
 -1       218-4.03929E-01-9.19192E-01 2.52791E+00-4.96041E-02-2.17563E-02-1.48546E-01
 -1       219-7.42294E-02-7.63806E-02 2.51474E-01-3.98938E-04-1.50696E-02 1.00321E-01
 -1       220-5.38059E-02-4.07315E-02 1.56292E-01-1.81275E-03-1.51860E-02 1.02423E-01
 -1       221-2.69076E-02-2.72831E-02 8.74759E-02-1.42457E-04-1.12448E-02 7.76217E-02
 -1       222-1.17181E-01-1.13755E-01 3.85069E-01-1.74427E-03-1.90790E-02 1.25909E-01
 -1       223-7.62057E-02-6.37173E-02 2.30338E-01-1.93033E-03-1.75228E-02 1.19337E-01
 -1       224-1.63570E-01-1.62683E-01 5.46917E-01-1.77499E-03-2.19959E-02 1.47682E-01
 -1       225-3.46499E-02-3.62397E-02 1.17131E-01-2.98750E-03-1.62972E-02 8.24463E-02
 -1       226-1.04016E-01-9.14253E-02 3.26626E-01-3.29726E-03-2.26477E-02 1.37169E-01
 -1       227-2.18025E-01-2.17535E-01 7.28487E-01-2.10240E-03-2.74927E-02 1.66683E-01
 -1       228-2.46030E-02-1.80148E-02 6.85959E-02-4.54751E-04-7.56008E-03 3.11337E-02
 -1       229-2.57129E-02-2.10889E-02 7.30478E-02-1.44838E-03-7.32389E-03 1.45095E-02
 -1       230-5.07892E-01-5.29729E-01 1.72351E+00-2.71109E-02-4.68469E-02-4.33990E-02
 -1       231-5.81739E-01-5.64933E-01 1.93354E+00-1.12547E-02-4.16007E-02-8.36228E-02
 -1       232-7.16743E-02-6.55220E-02 2.24278E-01 3.13549E-04-1.20361E-02 3.38114E-02
 -1       233-3.83159E-02-3.47323E-02 1.18981E-01-1.03484E-03-1.34164E-02 4.52700E-02
 -1       234-7.78323E-02-7.07337E-02 2.45265E-01-4.50040E-04-1.35054E-02-2.19103E-02
 -1       235-5.00959E-02-4.84132E-02 1.58480E-01 2.42772E-04-1.49950E-02-3.19121E-02
 -1       236-1.29575E-01-1.34172E-01 4.41956E-01-5.82927E-04-3.49390E-02 1.46801E-01
 -1       237-2.79934E-01-2.84068E-01 9.44393E-01-1.87155E-03-2.93725E-02 1.77500E-01
 -1       238-9.26942E-03-7.55994E-03 2.75763E-02-1.64826E-04-5.00203E-03 3.34963E-02
 -1       239-1.16322E-03-6.34068E-05 4.51425E-03-4.75662E-04-6.78097E-03 3.71394E-02
 -1       240-6.54309E-04-4.99341E-03 6.10531E-03-1.24606E-03-5.42657E-03 2.79843E-02
 -1       241 1.87736E-03 5.47726E-03-1.27224E-02 3.62059E-04-2.79761E-03 1.51982E-02
 -1       242-1.65965E-01-1.78817E-01 5.73658E-01 3.99323E-03-3.62856E-02 1.65829E-01
 -1       243-3.45917E-01-3.39080E-01 1.16478E+00-1.60100E-03-2.74241E-02 1.81837E-01
 -1       244-2.08544E-01-2.10325E-01 7.09153E-01 1.64589E-03-4.17340E-02 1.64885E-01
 -1       245-4.09990E-01-4.34136E-01 1.43750E+00 1.60512E-03-4.98126E-02 1.88437E-01
 -1       246-2.39413E-01-2.84995E-01 8.91169E-01-7.75936E-04-4.54573E-02 1.42713E-01
 -1       247-4.57282E-01-5.54716E-01 1.75142E+00 1.10708E-03-3.24318E-02 1.41585E-01
 -1       248-1.46774E-02-1.18637E-02 4.47188E-02 2.69598E-04-1.25688E-02 5.81810E-02
 -1       249-4.60631E-03-5.53996E-03 1.74260E-02-1.23417E-03-1.01543E-02 4.33507E-02
 -1       250-3.25672E-03-2.16385E-03 7.68417E-03 7.30899E-04-3.46790E-03 1.97427E-02
 -1       251-8.82492E-03-1.73072E-03 1.28580E-02 1.51413E-04-2.56128E-03 7.35354E-03
 -1       252-1.36482E-02-7.14479E-03 3.15868E-02-9.08239E-05-6.45227E-03 1.80681E-02
 -1       253-4.40736E-01-1.65519E+00 4.07536E+00 1.19438E-01-9.11487E-02 3.06151E-01
 -1       254-4.12701E-01-1.21041E+00 3.20530E+00 3.06801E-01 3.42256E-02 5.66580E-01
 -1       255-3.56716E-03 4.39631E-04 2.78398E-03-4.51905E-04-2.28566E-03-4.63196E-03
 -1       256-9.70094E-03-3.04311E-03 1.68445E-02-1.31483E-04-3.60880E-03-2.24405E-03
 -1       257-1.59906E-02-1.76529E-02 5.59063E-02-4.33919E-04-8.77522E-03 4.81979E-02
 -1       258-1.89820E-02-1.04715E-02 4.45930E-02-3.59082E-04-5.34999E-03 4.77179E-03
 -1       259-1.69721E-02-1.12031E-02 4.31710E-02-3.31896E-04-5.77867E-03-4.67591E-03
 -1       260-9.84578E-03-6.95455E-03 2.48578E-02-3.65855E-04-5.33131E-03-1.12501E-02
 -1       261-4.84270E-03-2.33435E-03 9.40367E-03-3.57042E-04-3.67806E-03-7.92143E-03
 -1       262-4.14774E-01-4.05251E-01 1.37159E+00-2.63592E-03-5.55434E-02-9.77840E-02
 -1       263-5.75114E-01-5.74005E-01 1.92980E+00 1.00687E-02-3.76742E-02-5.82715E-02
 -1       264-5.96624E-01-6.13205E-01 2.02933E+00 3.65928E-03-3.79394E-02-6.01133E-02
 -1       265-7.20772E-01-7.56538E-01 2.48536E+00 3.85316E-04-4.84515E-02-5.23261E-03
 -1       266-7.64938E-02-6.95955E-02 2.42882E-01-2.66938E-03-1.11179E-02-3.94214E-02
 -1       267-1.23001E-01-1.12423E-01 3.89598E-01 2.71407E-04-2.14126E-02-4.91213E-02
 -1       268-1.12260E-01-1.07642E-01 3.65057E-01 1.12834E-03-1.81288E-02-3.50466E-02
 -1       269-1.52213E-01-1.49473E-01 4.99597E-01-7.08862E-04-2.36978E-02-1.38594E-02
 -1       270-1.58176E-01-1.65010E-01 5.41365E-01-4.11209E-03-2.38901E-02-5.48361E-02
 -1       271-2.40074E-01-2.25633E-01 7.73338E-01 6.39432E-04-2.93307E-02-6.86860E-02
 -1       272-2.32502E-01-2.25423E-01 7.64291E-01 1.10437E-03-2.70899E-02-4.92109E-02
 -1       273-3.04482E-01-3.00204E-01 1.00422E+00 1.52110E-03-3.29708E-02-2.37012E-02
 -1       274-2.73425E-01-2.82737E-01 9.31531E-01-6.88258E-03-3.00762E-02-7.01650E-02
 -1       275-3.83397E-01-3.75971E-01 1.26372E+00-2.86043E-03-4.48829E-02-8.51807E-02
 -1       276-3.95791E-01-3.92561E-01 1.31742E+00 3.25724E-03-3.87884E-02-6.52975E-02
 -1       277-4.97235E-01-5.01343E-01 1.66524E+00-2.62538E-03-3.64948E-02-1.93566E-02
 -1       278-8.19208E-01-1.16652E+00 3.56760E+00 5.99588E-02-2.06234E-02 2.74469E-01
 -1       279-6.83610E-01-9.10027E-01 2.85009E+00 5.61600E-02 1.70275E-02 3.06237E-01
 -1       280-6.22538E-01-1.20101E+00 3.44950E+00 9.44047E-02-1.25445E-02 4.02282E-01
 -1       281-6.46337E-01-8.44967E-01 2.65312E+00 4.77388E-02 4.67811E-02 4.77769E-01
 -1       282-6.69244E-01-1.38240E+00 3.92197E+00 4.65001E-02-9.40673E-02 2.54372E-01
 -1       283-3.57244E-01-3.58938E-01 1.29360E+00 2.18299E-02-1.19112E-01-6.81801E-02
 -1       284-1.06955E-02-6.17774E-03 2.73294E-02-4.06186E-05-7.88862E-03-1.44750E-02
 -1       285-6.96158E-01-8.38888E-01 2.67796E+00 1.80538E-02-2.64533E-02 1.73902E-01
 -1       286-1.58349E-01-1.50737E-01 5.12575E-01-2.84046E-03-2.47085E-02-6.58854E-02
 -1       287-1.16031E-01-1.17826E-01 3.92033E-01-4.14529E-03-2.38124E-02-5.42140E-02
 -1       288-2.83354E-01-2.72291E-01 9.21950E-01-4.80716E-03-3.33182E-02-8.90274E-02
 -1       289-2.17267E-01-2.23477E-01 7.40556E-01-7.06414E-03-3.19188E-02-7.36001E-02
 -1       290-4.50354E-01-4.24775E-01 1.44512E+00-7.90577E-03-4.43199E-02-8.97747E-02
 -1       291-3.43802E-01-3.48563E-01 1.18199E+00-5.18685E-03-3.24102E-02-9.01510E-02
 -1       292-8.19830E-01-9.44957E-01 3.02556E+00 1.15742E-02-4.56409E-02 6.82412E-02
 -1       293-7.11110E-01-7.50735E-01 2.47018E+00 1.33288E-02-2.60081E-02-7.19676E-03
 -1       294-5.55054E-01-5.80982E-01 1.90785E+00-5.37636E-03-2.15022E-02-2.93602E-03
 -1       295-8.24216E-01-9.27068E-01 2.98872E+00 8.20703E-03-5.57377E-02 3.38282E-02
 -1       296-1.02716E-01-9.80846E-02 3.30268E-01 1.12099E-03-1.65650E-02-2.39719E-02
 -1       297-1.77437E-01-1.68866E-01 5.74931E-01-5.82942E-04-2.28919E-02-3.93667E-02
 -1       298 1.24338E-02-5.00202E-01 1.33310E+00-1.86104E-01 5.41828E-02-2.39988E-01
 -1       299-2.21985E-01-2.18649E-01 7.29086E-01 2.46372E-03-2.63222E-02-3.44276E-02
 -1       300 1.85016E-03 3.09147E-03-7.40958E-03-7.56126E-04-2.01351E-03 1.72226E-02
 -1       301-3.27670E-01-3.17285E-01 1.07425E+00-4.79648E-04-3.11010E-02-5.34910E-02
 -1       302-3.90597E-01-3.91633E-01 1.29904E+00 4.71126E-03-3.54542E-02-4.45751E-02
 -1       303-5.20672E-01-5.15350E-01 1.73100E+00 3.27353E-03-3.98787E-02-5.99986E-02
 -1       304-7.53618E-02-6.98845E-02 2.36452E-01-6.36423E-04-1.40239E-02 5.27853E-03
 -1       305-6.00462E-01-6.13608E-01 2.02761E+00 6.46801E-03-4.88270E-02-3.92297E-02
 -1       306-8.22464E-01-1.08262E+00 3.34468E+00 3.61984E-02-4.49996E-02 1.42470E-01
 -1       307-1.31022E-01-1.22911E-01 4.17862E-01 5.31393E-04-1.90973E-02 5.46385E-03
 -1       308-1.01029E-01-9.41321E-02 3.20058E-01-1.65997E-03-1.80075E-02 1.07208E-02
 -1       309-2.31026E-01-9.96690E-01 2.54476E+00-8.82739E-02-4.15228E-02-3.24045E-01
 -1       310-1.79097E-01-1.43880E+00 3.38436E+00-1.43587E-01-3.55349E-02-2.17706E-01
 -1       311-7.75212E-01-8.33565E-01 2.71040E+00 9.67232E-03-5.11585E-02-5.29001E-03
 -1       312-3.87831E-01-1.77941E+00 4.37870E+00 6.84822E-03-1.96412E-01 1.31743E-01
 -1       313-1.88202E-01-1.81608E-01 6.11738E-01-6.74947E-04-2.22271E-02 1.11171E-02
 -1       314-1.53410E-01-1.43992E-01 4.91941E-01-6.85563E-04-2.22183E-02 3.63276E-02
 -1       315-2.66762E-01-2.59786E-01 8.72544E-01 6.06569E-04-2.51903E-02 9.32350E-04
 -1       316-2.26012E-01-2.20264E-01 7.37285E-01-1.62236E-03-2.26476E-02 1.03065E-02
 -1       317-3.51777E-01-3.47776E-01 1.16211E+00 2.57513E-04-3.10655E-02 1.57463E-02
 -1       318-3.00215E-01-2.97061E-01 9.90161E-01 7.12765E-04-3.31589E-02 4.60204E-02
 -1       319-2.93750E-01-1.61809E+00 4.02456E+00-9.96807E-02-1.66232E-01-5.43326E-02
 -1       320-4.56348E-01-4.50845E-01 1.50913E+00 1.45174E-03-3.55606E-02-5.76557E-04
 -1       321-4.02997E-01-3.99813E-01 1.33172E+00-2.01409E-03-3.06323E-02 1.38376E-02
 -1       322-5.65975E-01-5.70611E-01 1.89578E+00 1.29233E-03-3.87226E-02 1.87610E-02
 -1       323-5.02541E-01-5.01037E-01 1.67043E+00 9.56259E-04-3.61983E-02 6.30759E-02
 -1       324-1.44268E-02-1.08615E-02 3.96797E-02-1.10174E-03-8.38030E-03-1.76309E-02
 -1       325-6.85322E-01-6.97687E-01 2.32050E+00 2.34727E-03-4.94630E-02 1.57313E-02
 -1       326-6.17769E-01-6.30376E-01 2.08754E+00-1.28228E-03-4.16825E-02 3.08715E-02
 -1       327-6.83882E-01-7.46983E-01 2.43251E+00 1.03805E-03-1.57881E-02 6.86159E-02
 -1       328-7.71629E-01-8.41633E-01 2.73450E+00 3.51416E-03-4.17739E-02 5.63351E-02
 -1       329-7.08615E-01-7.51896E-01 2.46226E+00 1.96041E-04-4.94441E-02 8.52220E-02
 -1       330-7.94891E-01-9.18266E-01 2.92906E+00-9.01847E-04-5.38756E-02 8.45995E-02
 -1       331-5.20226E-01-1.44960E+00 3.90165E+00-8.97627E-03-1.32411E-01 9.48845E-02
 -1       332 1.44332E-01 1.47072E-01 6.66791E-01 1.07360E-01 4.48084E-01 4.49434E-01
 -1       333-5.35746E-04 2.49062E-04-7.23787E-05-2.00893E-04-1.29550E-03-1.42003E-03
 -1       334 4.40826E-03 1.24805E-03-5.15749E-03-1.64762E-03-8.36414E-04 1.05512E-02
 -1       335 1.15074E-03 1.81123E-03-5.98467E-03-5.52337E-04-9.15595E-04 8.19878E-03
 -1       336 2.10801E-03 1.23336E-03-7.57575E-03 1.90370E-04-3.53954E-03 1.09059E-02
 -1       337 8.64916E-02-1.70479E-01 3.51235E-01-1.14998E-01 6.11521E-02-2.27166E-01
 -1       338 2.35581E-02-2.01824E-01 2.52559E-01-5.84329E-02 1.17581E-01-8.22299E-02
 -1       339 1.67751E-02-1.62009E-01 1.06315E+00-1.31994E-01 7.18772E-02-1.28814E-01
 -1       340-1.78481E-01-2.56370E-01 1.17425E+00 7.61691E-03 1.73903E-01 3.04832E-01
 -1       341-1.41110E-01-1.69771E-01 6.81840E-01-3.52296E-02 1.66490E-01 2.24912E-01
 -1       342-1.99058E-01-2.78231E-01 1.18184E+00 1.18275E-01 1.97902E-01 4.04507E-01
 -1       343-3.34312E-01-6.50351E-01 2.49873E+00 2.14941E-01 8.20911E-02 5.44797E-01
 -1       344-5.04831E-01-1.03837E+00 2.94897E+00 1.57193E-01 5.15978E-02 6.71876E-01
 -1       345-1.15417E-01-3.76536E-01 1.19220E+00 4.35210E-02 1.21671E-01 2.11644E-01
 -1       346-3.15524E-01-3.10061E-01 1.22699E+00 5.15892E-02 1.15216E-01 1.22177E-01
 -1       347-6.78658E-01-7.99128E-01 2.40494E+00 2.21207E-02 3.75155E-02 4.19427E-01
 -1       348-3.18088E-01-3.73371E-01 1.45696E+00 7.06725E-02-3.06907E-02 1.02099E-01
 -1       349-3.06838E-01-2.05022E-01 1.10052E+00-1.65862E-03 1.38247E-02 6.59730E-02
 -1       350-7.63068E-01-8.29587E-01 2.48513E+00 5.83643E-02-2.37113E-02 2.78646E-01
 -1       351-2.56129E-01-3.67882E-01 1.32696E+00 7.80425E-02-5.46872E-02 8.28401E-02
 -1       352-2.49931E-01-1.70179E-01 8.55057E-01-2.74582E-02 6.32082E-03-1.05019E-02
 -1       353-6.91505E-01-7.91687E-01 2.36286E+00 6.59737E-03-3.41424E-02 1.50425E-01
 -1       354-1.88470E-01-1.94266E-01 9.08572E-01 5.03123E-02-7.34362E-02-1.66411E-02
 -1       355-1.92420E-01-2.37978E-01 9.55913E-01 6.14472E-02-3.53554E-02 4.09114E-02
 -1       356-6.27280E-01-6.34466E-01 2.00485E+00-3.40015E-03-3.70506E-02 3.31469E-02
 -1       357-1.48295E-01-1.53609E-01 7.55417E-01 2.19603E-02 5.81377E-02-5.36083E-02
 -1       358-1.12940E-01-5.43964E-02 3.92983E-01-7.20301E-02-7.19692E-02-1.07580E-02
 -1       359-5.05003E-01-5.38946E-01 1.63038E+00-2.61459E-02-2.20217E-02-4.42253E-02
 -1       360-2.14009E-01-2.67274E-01 9.07993E-01 5.46057E-03 1.86718E-02-5.65757E-02
 -1       361-2.03475E-01-1.21838E-01 6.39672E-01-2.21165E-02-2.35456E-02-3.47121E-02
 -1       362-5.49539E-01-5.25030E-01 1.65772E+00-1.33214E-02-5.82443E-02-1.30570E-01
 -1       363-8.46096E-02-8.10365E-02 5.06100E-01 2.34107E-02-4.87231E-02-5.18381E-02
 -1       364-1.21712E-01-6.99652E-02 3.23221E-01-1.24797E-02-9.15995E-02 3.67006E-03
 -1       365-2.52348E-01-2.84445E-01 8.96875E-01 4.52582E-03-9.78204E-02-5.49474E-03
 -1       366-6.00076E-01-5.65386E-01 1.86553E+00 2.75203E-02-5.64314E-02-9.95757E-02
 -1       367-4.44506E-01-4.74214E-01 1.59411E+00 2.90052E-02-8.02376E-02-5.39814E-02
 -1       368-1.26519E-01-1.56576E-01 6.51773E-01 2.66743E-02-2.35869E-03-9.26779E-02
 -1       369-1.29699E-01-6.05763E-02 3.98053E-01-2.17716E-02-4.27718E-02-4.43444E-02
 -1       370-3.86928E-01-3.89681E-01 1.16847E+00-1.19650E-02-7.44733E-02-1.16838E-01
 -1       371-1.50315E-01-1.45013E-01 6.46943E-01 2.21649E-03-1.98536E-02-5.34713E-02
 -1       372-1.63280E-01-8.65016E-02 4.81139E-01-1.69289E-02-5.69803E-02-5.11125E-02
 -1       373-4.29932E-01-4.00185E-01 1.28452E+00-9.16848E-03-5.79404E-02-1.39296E-01
 -1       374-1.03181E-01-1.47432E-01 5.63275E-01 1.84878E-02-2.75672E-03-3.45825E-02
 -1       375-1.06726E-01-5.31429E-02 3.50749E-01-2.08338E-02-5.41434E-02-1.97597E-03
 -1       376-4.00491E-01-3.65159E-01 1.15700E+00-2.71463E-03-4.39512E-02-1.25217E-01
 -1       377-1.61057E-01-9.58690E-02 4.91428E-01-1.36461E-03-5.54143E-02-4.06968E-02
 -1       378-1.43058E-01-1.48328E-01 6.23546E-01 2.02639E-02-3.08821E-02-6.86641E-02
 -1       379-3.69098E-01-3.54625E-01 1.12226E+00-1.80282E-03-4.44773E-02-1.24766E-01
 -1       380-7.91392E-02-9.87703E-02 4.16232E-01 3.35359E-03-2.10709E-02-3.41271E-02
 -1       381-8.51236E-02-4.44805E-02 2.62944E-01-1.57301E-02-6.14477E-02-3.47185E-02
 -1       382-3.27721E-01-3.14906E-01 9.68527E-01-3.70717E-03-2.95096E-02-9.97106E-02
 -1       383-8.99073E-02-1.05704E-01 4.28226E-01 8.12239E-03-2.35977E-02-5.17153E-02
 -1       384-9.63332E-02-5.25244E-02 2.99911E-01-1.31972E-02-4.97993E-02-3.31672E-02
 -1       385-2.75169E-01-2.69850E-01 8.28201E-01-2.93680E-03-4.54828E-02-1.07583E-01
 -1       386-6.37448E-02-7.97617E-02 3.34364E-01 3.39115E-03-2.24727E-02-2.97249E-02
 -1       387-7.04564E-02-3.52520E-02 2.11422E-01-1.35467E-02-5.02760E-02-2.03589E-02
 -1       388-2.39798E-01-2.35818E-01 7.17536E-01-3.50861E-03-2.92491E-02-9.27086E-02
 -1       389-9.13449E-02-4.90690E-02 2.78691E-01-5.85918E-03-4.30467E-02-3.16185E-02
 -1       390-8.48888E-02-8.78472E-02 3.69806E-01 8.78495E-03-2.41490E-02-4.79512E-02
 -1       391-2.27128E-01-2.22850E-01 6.89301E-01-1.94445E-03-3.60965E-02-9.60448E-02
 -1       392-4.56500E-02-5.82382E-02 2.41642E-01 1.56419E-03-2.00113E-02-2.53956E-02
 -1       393-5.03035E-02-2.53080E-02 1.51832E-01-8.98291E-03-4.34536E-02-2.08788E-02
 -1       394-1.92580E-01-1.85368E-01 5.70901E-01-7.98078E-04-2.22924E-02-7.22959E-02
 -1       395-4.99341E-02-5.87588E-02 2.35141E-01 3.44656E-03-2.08519E-02-3.81734E-02
 -1       396-5.42514E-02-2.81579E-02 1.65431E-01-7.57312E-03-3.58895E-02-2.57100E-02
 -1       397-1.55265E-01-1.53682E-01 4.68661E-01-1.15080E-03-3.22294E-02-7.59877E-02
 -1       398-3.40739E-02-4.15696E-02 1.73981E-01 1.03495E-03-1.92828E-02-2.36273E-02
 -1       399-3.75370E-02-1.72426E-02 1.08968E-01-7.07395E-03-3.46127E-02-1.72451E-02
 -1       400-1.30200E-01-1.27839E-01 3.88664E-01-1.38760E-03-2.24806E-02-6.55431E-02
 -1       401-4.69982E-02-2.32456E-02 1.38221E-01-2.79728E-03-2.90079E-02-2.44438E-02
 -1       402-4.32100E-02-4.25000E-02 1.81357E-01 3.63767E-03-1.95751E-02-3.28597E-02
 -1       403-1.17444E-01-1.14906E-01 3.54975E-01-8.83799E-04-2.44312E-02-6.50674E-02
 -1       404-2.54381E-02-2.06439E-02 7.68042E-02-2.76614E-03-1.45452E-02-1.57209E-02
 -1       405-2.37101E-02-7.66514E-03 6.68180E-02-3.46634E-03-2.52578E-02-1.45281E-02
 -1       406-9.56226E-02-9.02266E-02 2.80345E-01 7.06684E-05-1.54338E-02-4.91621E-02
 -1       407-1.72490E-02-2.54427E-02 7.89090E-02 4.26239E-03-3.11635E-02-8.99721E-03
 -1       408-6.92452E-03-3.97967E-03 3.35498E-02-5.64207E-03-2.12256E-02-1.55630E-02
 -1       409-2.47928E-02-3.96858E-02 1.12315E-01 1.33504E-03-2.23761E-02-2.08639E-02
 -1       410-6.04129E-02-5.51998E-02 1.86958E-01-5.05426E-04-2.17326E-02-3.57888E-02
 -1       411-7.10590E-02-6.82971E-02 2.26223E-01 2.54869E-03-1.44966E-02-4.38748E-02
 -1       412-2.02582E-02-1.45407E-02 5.58688E-02-5.29633E-03-8.86516E-03-1.27327E-02
 -1       413-1.23302E-02-1.02151E-02 4.56330E-02-9.77755E-04-1.14723E-02-2.03586E-02
 -1       414-1.42802E-02-1.98021E-02 6.74023E-02 4.12850E-03-1.55863E-02-1.81689E-02
 -1       415-2.06267E-02-1.68167E-02 6.02404E-02-1.23250E-03-1.29520E-02-1.96119E-02
 -1       416-4.90195E-02-4.47952E-02 1.57633E-01 2.26781E-04-1.15275E-02-3.85278E-02
 -1       417-4.30082E-02-4.22384E-02 1.31195E-01-1.64216E-03-1.34253E-02-3.05656E-02
 -1       418-9.40002E-03-7.31821E-03 3.34746E-02 1.46078E-03-1.45477E-02-1.84887E-02
 -1       419-6.31816E-03-4.86929E-03 2.48115E-02-1.81176E-03-9.37371E-03-1.28675E-02
 -1       420-3.36769E-02-2.59663E-02 8.65811E-02 1.80222E-04-1.03988E-02-2.28251E-02
 -1       421-3.81380E-03-3.71428E-03 1.57407E-02-8.75935E-04-6.66661E-03-9.15333E-03
 -1       422-2.83038E-03 2.05440E-04 6.71024E-03-1.49213E-03-9.72023E-03-7.50875E-03
 -1       423-1.88669E-02-1.51410E-02 4.78461E-02-2.84657E-03-9.02291E-03-1.91773E-02
 -1       424-2.95788E-03-2.88127E-03 1.00929E-02-3.32355E-04-5.80487E-03-9.34996E-03
 -1       425-3.28662E-03-1.21889E-03 6.21226E-03-1.99277E-04-7.83464E-03-7.12965E-03
 -1       426-1.14081E-02-8.18352E-03 3.11007E-02-3.91610E-04-8.31989E-03-1.64899E-02
 -1       427-1.81974E-03-6.30217E-04 3.14374E-03-6.28025E-04-3.21900E-03-4.91360E-03
 -1       428-1.57234E-03-5.36739E-04 1.80272E-03-2.04853E-04-4.40481E-03-5.23185E-03
 -1       429-2.89954E-03-2.47969E-03 8.72827E-03-2.93720E-04-5.34001E-03-7.82374E-03
 -1       430-7.45091E-03-4.08575E-03 1.38189E-02-1.52747E-04-4.13766E-03-1.00832E-02
 -1       431-9.97758E-03-6.81375E-03 2.60199E-02 9.69251E-05-6.61906E-03-1.27039E-02
 -1       432-1.48568E-03 4.50785E-04 6.40343E-04-2.80574E-04-2.48761E-03-3.31480E-03
 -1       433-2.63836E-03 4.48790E-04 1.46136E-03-2.91894E-04-1.23752E-03-3.05886E-03
 -1       434-3.63626E-03-9.88631E-04 5.98536E-03-5.87990E-04-2.97037E-03-6.40003E-03
 -1       435-5.20254E-03 1.26328E-03 3.04843E-03-2.83420E-04-6.43552E-04-1.96217E-03
 -1       436-8.02798E-03 4.55497E-04 6.64308E-03-8.43056E-04-1.47170E-03 6.84445E-03
 -1       437-7.71730E-03 6.39736E-04 7.04142E-03 1.48800E-04-1.12226E-04 2.75011E-03
 -1       438-7.06371E-03-1.03423E-03 7.87945E-03-7.58586E-04-2.13929E-03-1.21393E-03
 -1       439-9.48112E-03-2.01467E-03 1.46285E-02 3.92472E-04-2.10425E-03 2.64038E-03
 -1       440-6.90210E-03-1.09106E-03 9.32898E-03-1.15564E-03-2.74624E-03-4.19587E-03
 -1       441-5.99819E-03 7.44580E-04 4.56714E-03-2.81551E-04-6.98095E-04 1.16862E-02
 -1       442-1.29096E-03-2.11197E-04 1.39445E-03 2.89640E-04-2.72452E-03 1.48369E-02
 -1       443-7.07329E-03-1.76414E-03 1.14003E-02 5.56222E-04-3.53088E-03 1.40892E-02
 -1       444 1.72485E-03 7.17485E-04-3.03538E-03-1.94767E-03-2.97581E-04 1.40993E-02
 -1       445 1.29271E-04 2.74860E-04-4.14038E-04 3.49546E-04-2.59453E-03 1.92382E-02
 -1       446 2.30150E-02-2.20057E-01 5.51404E-01-3.60644E-02-3.01524E-02-1.35479E-01
 -1       447 6.97423E-02-2.35512E-01 5.15346E-01 4.47336E-03 4.61542E-03-2.06683E-01
 -1       448-8.35545E-02-5.61482E-01 1.52830E+00-9.52821E-02 1.25619E-01-3.51328E-01
 -1       449 2.00107E-02-7.64021E-02 1.56954E-01 7.26769E-03 6.57839E-03 2.00040E-03
 -1       450 5.62347E-02-6.80124E-02 1.43831E-01-1.72285E-02-1.21661E-02-4.06994E-02
 -1       451-1.87751E-01-4.44603E-01 1.17111E+00-2.07037E-02 4.14972E-02-9.81723E-02
 -1       452-5.42165E-02-7.08410E-02 2.29656E-01 9.79456E-03-1.56095E-02 1.02429E-01
 -1       453-4.54609E-02-7.08333E-02 2.58013E-01-2.84697E-03-5.38703E-03 8.34723E-02
 -1       454-2.54569E-01-3.56204E-01 1.12303E+00-6.78867E-03-3.41770E-02 5.75333E-02
 -1       455-9.50684E-02-1.17172E-01 3.94705E-01-1.03783E-02-9.40545E-03 7.55326E-02
 -1       456-2.94315E-01-3.49704E-01 1.11046E+00-1.80579E-02-3.65618E-02 1.11757E-01
 -1       457-3.45705E-02-7.02900E-02 1.63169E-01 9.68101E-03-2.15568E-02 1.01049E-01
 -1       458-2.91988E-02-6.26725E-02 1.60515E-01-1.41780E-02-2.38435E-02 1.00980E-01
 -1       459-2.34820E-01-2.27784E-01 7.90227E-01-5.90834E-03-3.42588E-02 1.55168E-01
 -1       460-2.73651E-02-3.42504E-02 1.19439E-01 1.06516E-02 2.44089E-03 1.07378E-01
 -1       461-2.66972E-02-4.29139E-02 1.28788E-01-8.53473E-03-2.16747E-02 1.00424E-01
 -1       462-1.86182E-01-1.92170E-01 6.23707E-01-1.02717E-02-5.50363E-02 1.64873E-01
 -1       463-2.21107E-02-3.16373E-02 8.73795E-02 1.22598E-02-2.16271E-03 8.81085E-02
 -1       464-1.54800E-02-3.57048E-02 8.64759E-02-7.45767E-03-2.94311E-02 9.20308E-02
 -1       465-1.44382E-01-1.50737E-01 4.89261E-01-1.52208E-02-5.17560E-02 1.55846E-01
 -1       466-1.91027E-02-2.59635E-02 6.95928E-02 2.82787E-03-1.27246E-02 8.04694E-02
 -1       467-1.34752E-02-2.93968E-02 6.76791E-02-7.87002E-03-1.60696E-02 7.98654E-02
 -1       468-1.20883E-01-1.06370E-01 3.78079E-01 1.89872E-03-2.07662E-02 1.37634E-01
 -1       469-1.40361E-02-1.81190E-02 4.66010E-02 3.16740E-03-7.62864E-03 6.93240E-02
 -1       470-1.32399E-02-1.81303E-02 3.89858E-02-6.56222E-03-1.20886E-02 7.12629E-02
 -1       471-9.17013E-02-7.32894E-02 2.80296E-01-1.62673E-03-2.69551E-02 1.25456E-01
 -1       472-7.74868E-03-9.58897E-03 2.69742E-02 4.72088E-03-4.21238E-03 5.85551E-02
 -1       473-8.92251E-03-1.09472E-02 2.24712E-02-4.37421E-03-1.01289E-02 5.98436E-02
 -1       474-6.73011E-02-4.88931E-02 1.96306E-01-2.64052E-04-2.27001E-02 1.07299E-01
 -1       475 1.94012E-04-2.40300E-03 2.64344E-03 1.96178E-04-5.06422E-03 4.26331E-02
 -1       476-9.60391E-05 1.15368E-03-6.50459E-03-8.20767E-04-5.94557E-03 4.86471E-02
 -1       477-4.33377E-02-2.95516E-02 1.16911E-01-7.23492E-03-1.95550E-02 8.90317E-02
 -1       478 1.44373E-03-8.94650E-03 4.64831E-03 2.83981E-04-5.07695E-03 3.27738E-02
 -1       479 2.10620E-03 5.28627E-04-9.85003E-03-2.05448E-03-6.03161E-03 3.78935E-02
 -1       480-2.90428E-02-3.12611E-02 1.08194E-01 1.31655E-03-9.17757E-03 8.06905E-02
 -1       481-6.38448E-03-7.35163E-03 2.06559E-02 1.41241E-03-1.01528E-02 5.19972E-02
 -1       482-2.48003E-02-1.93377E-02 7.60279E-02-4.44531E-03-1.53790E-02 7.03056E-02
 -1       483 6.72332E-04 1.95530E-03-7.41351E-03 2.70524E-04-4.66437E-03 2.50836E-02
 -1       484 1.79115E-03 9.84827E-03-1.46592E-02-9.38076E-04-5.21637E-03 2.70549E-02
 -1       485-9.26665E-03-9.75815E-03 3.02423E-02-6.60791E-04-1.21925E-02 5.39854E-02
 -1       486 1.73993E-03 2.66945E-03-8.66587E-03 1.48019E-03-3.00786E-03 8.70095E-03
 -1       487 1.92347E-03 7.51117E-03-1.83359E-02-5.38426E-04-2.54362E-03 1.17472E-02
 -1       488 2.09187E-03 3.39414E-03-8.79090E-03-1.49968E-03-4.50064E-03 2.58104E-02
 -1       489 1.98771E-03 2.57113E-03-7.90907E-03-1.25913E-03-3.96137E-03 2.46863E-02
 -1       490-1.86618E-03-6.57115E-03 1.25633E-02-1.63362E-04-1.18647E-02 3.96408E-02
 -1       491 2.14856E-03 3.21202E-03-8.20315E-03 1.42920E-04-1.81324E-03 1.65157E-02
 -1       492-2.36001E-01-1.15242E+00 3.52500E+00 2.86518E-01-1.40882E-01 4.65422E-01
 -1       493-2.34411E-01-1.16847E+00 4.35996E+00-1.62715E-01-4.67891E-01 6.37381E-02
 -1       494-2.21111E-01-1.61311E+00 4.26995E+00 2.03075E-02-2.56786E-01 1.94056E-01
 -1       495-4.79406E-01-1.41485E+00 3.63321E+00 1.06091E-01 6.72018E-03 4.24962E-01
 -1       496-2.30082E-01-1.48770E+00 3.96550E+00 2.40588E-02-1.43592E-01 3.36445E-01
 -1       497-4.51796E-01-1.81242E+00 4.25860E+00 1.16442E-01-1.39124E-01 2.00658E-01
 -1       498-8.97658E-02-1.41462E+00 3.93678E+00-1.07197E-01-2.53482E-01-1.58586E-01
 -1       499-9.21017E-02-9.18127E-01 3.25154E+00-1.16955E-01-1.71023E-01-2.14426E-01
 -1       500-1.72978E-01-1.05160E+00 4.15774E+00-1.35437E-01-3.24354E-01-4.34152E-02
 -1       501-2.39021E-01-1.57368E+00 3.72907E+00-9.16236E-02-8.34707E-02-9.84179E-02
 -1       502-3.59046E-01-1.63783E+00 4.21790E+00-9.38000E-02-1.89980E-01 2.89159E-02
 -1       503 9.39521E-04-3.52934E-01 2.07997E+00-1.43086E-01-8.34544E-02-2.54243E-01
 -1       504-3.89447E-02-1.00064E+00 2.46865E+00-1.41821E-01 2.94878E-02-2.77629E-01
 -1       505-6.24218E-02-5.64123E-02 1.99085E-01 9.76845E-04-1.50923E-02-3.14409E-02
 -1       506-7.61181E-02-7.19342E-02 2.49572E-01-7.66735E-04-1.61326E-02-2.97791E-02
 -1       507-9.00091E-02-8.28676E-02 2.84692E-01 5.44692E-04-1.87374E-02-3.07987E-02
 -1       508-9.22305E-02-8.35420E-02 2.84584E-01 9.53854E-04-1.74959E-02-2.08685E-02
 -1       509-9.23243E-02-9.19678E-02 3.01348E-01 2.83558E-03-1.36595E-02-4.23947E-02
 -1       510-9.36557E-02-8.73304E-02 2.94543E-01 3.15340E-03-1.60728E-02-3.35474E-02
 -1       511-1.06827E-01-1.03279E-01 3.48081E-01-1.41969E-03-1.64289E-02-2.91917E-02
 -1       512-6.46770E-02-6.09598E-02 2.06517E-01-4.42379E-04-1.47246E-02-2.35958E-02
 -1       513-8.40934E-01-1.07518E+00 3.35194E+00 8.51590E-03-6.08352E-02 9.81670E-02
 -1       514-7.93928E-01-1.07486E+00 3.31774E+00-6.11113E-03-4.65844E-02 1.01421E-01
 -1       515-7.84865E-01-1.11440E+00 3.38611E+00 7.61848E-03-6.12594E-02 1.09616E-01
 -1       516-7.37888E-01-1.19460E+00 3.55168E+00 5.06928E-03-8.57832E-02 1.02677E-01
 -1       517-8.14285E-01-1.19320E+00 3.57734E+00 1.46798E-02-6.68283E-02 1.41160E-01
 -1       518-8.36828E-01-1.00178E+00 3.18405E+00 1.65812E-02-5.14652E-02 7.31285E-02
 -1       519-8.37081E-01-1.03388E+00 3.28488E+00 1.17912E-02-4.34454E-02 9.48533E-02
 -1       520-8.29030E-01-1.10136E+00 3.39383E+00 2.48383E-02-5.98894E-02 1.27327E-01
 -1       521-7.86824E-01-1.19994E+00 3.58777E+00 2.79920E-02-6.28547E-02 1.70115E-01
 -1       522-8.27704E-01-1.01108E+00 3.13332E+00 1.08475E-02-3.37567E-02 9.98077E-02
 -1       523-7.72130E-01-9.84337E-01 3.06309E+00 3.34508E-03-6.03979E-02 1.00453E-01
 -1       524-7.33705E-01-1.03157E+00 3.13318E+00-4.40412E-03-5.99381E-02 7.84145E-02
 -1       525-6.68691E-01-9.47949E-01 2.89135E+00-1.23526E-02-6.04708E-02 7.20054E-02
 -1       526-6.67615E-01-1.02985E+00 3.07121E+00-2.02001E-02-7.12162E-02 6.41750E-02
 -1       527-5.71554E-01-1.08053E+00 3.10520E+00-2.47679E-02-5.48180E-02-1.76225E-02
 -1       528-6.37305E-01-1.17954E+00 3.37388E+00-2.57642E-02-6.39054E-02 4.99639E-02
 -1       529-6.07424E-01-1.25950E+00 3.54668E+00-6.30074E-03-8.55136E-02 6.85652E-02
 -1       530-8.19677E-01-9.67467E-01 3.07689E+00-1.10582E-03-6.54598E-02 7.80576E-02
 -1       531-7.57026E-01-9.34364E-01 2.94148E+00-4.14408E-03-4.95583E-02 9.84476E-02
 -1       532-8.27115E-01-9.39327E-01 3.00352E+00 1.06586E-02-4.13951E-02 3.89313E-02
 -1       533-8.35400E-01-9.86207E-01 3.16235E+00-6.64592E-04-5.21428E-02 6.91471E-02
 -1       534-8.17805E-01-9.11583E-01 2.97012E+00 1.42362E-02-3.88493E-02 6.64751E-02
 -1       535-6.35522E-01-8.45205E-01 2.60258E+00-1.69098E-02-5.63683E-02 8.95046E-02
 -1       536-5.75732E-01-8.49744E-01 2.56791E+00-8.96251E-03-4.87101E-02 4.73891E-02
 -1       537-6.87471E-01-8.55076E-01 2.68780E+00-3.38472E-03-5.75023E-02 1.07356E-01
 -1       538-6.01628E-01-7.56318E-01 2.38549E+00-1.04975E-02-5.73952E-02 1.09581E-01
 -1       539-7.17815E-01-8.45396E-01 2.68754E+00-3.63907E-03-5.54061E-02 1.09121E-01
 -1       540-2.97864E-02-2.32862E-02 8.73153E-02 7.13570E-04-8.60263E-03-1.45079E-02
 -1       541-2.60578E-02-2.12544E-02 7.35753E-02-1.19010E-03-8.03140E-03-9.34465E-03
 -1       542-3.43913E-02-2.92471E-02 1.00598E-01 2.45944E-04-6.66269E-03-7.74598E-03
 -1       543-4.20353E-02-3.54811E-02 1.25875E-01-7.58332E-04-9.96670E-03-3.39805E-04
 -1       544-3.79202E-02-2.95356E-02 1.06005E-01-1.61950E-03-5.59920E-03 4.68348E-03
 -1       545-2.88664E-02-2.67615E-02 8.86800E-02-1.49448E-03-9.28166E-03-2.02675E-02
 -1       546-2.25968E-02-1.81421E-02 6.72216E-02-2.85294E-04-7.46748E-03-1.79922E-02
 -1       547-4.84966E-02-4.11518E-02 1.44067E-01-7.46122E-04-1.26672E-02-1.28419E-02
 -1       548-5.17471E-02-4.24686E-02 1.58752E-01 3.81615E-03-9.77229E-03 4.14195E-03
 -1       549-4.61102E-02-4.23163E-02 1.46831E-01-1.53187E-03-1.26327E-02-2.06397E-02
 -1       550-3.62778E-02-3.32932E-02 1.15281E-01 1.81948E-03-9.77677E-03-2.06876E-02
 -1       551-2.32449E-02-1.77401E-02 6.21443E-02 1.05166E-03-6.69370E-03-2.90063E-03
 -1       552-2.01337E-02-1.47746E-02 5.51951E-02-5.14312E-04-6.15177E-03-1.07596E-02
 -1       553-2.78206E-02-2.27567E-02 7.81435E-02 1.38449E-03-8.30770E-03 6.76569E-03
 -1       554-3.36507E-02-2.68156E-02 9.79762E-02 5.44855E-04-9.55549E-03 1.56607E-02
 -1       555-2.33496E-02-1.74837E-02 5.97064E-02 3.06139E-04-5.60087E-03 1.60579E-03
 -1       556-2.12131E-02-1.57053E-02 5.51812E-02-1.18321E-03-5.43900E-03 9.91686E-03
 -1       557-1.84751E-02-1.06480E-02 4.44996E-02-5.29639E-04-5.98255E-03-2.77513E-05
 -1       558-1.76880E-02-1.41987E-02 4.86425E-02 2.50551E-05-9.68139E-03-1.82377E-02
 -1       559-1.55809E-02-1.15609E-02 4.45810E-02-2.48666E-04-8.62730E-03-1.45379E-02
 -1       560-1.43398E-02-9.28745E-03 3.72931E-02 5.97341E-04-6.74952E-03-1.08703E-02
 -1       561-6.01188E-02-5.19989E-02 1.80322E-01-4.86955E-04-1.15490E-02 1.04593E-02
 -1       562-6.55221E-02-6.00989E-02 2.03818E-01-3.95759E-03-1.20690E-02-2.80166E-04
 -1       563-5.63700E-02-4.62187E-02 1.68788E-01 2.97227E-03-1.27804E-02-2.11643E-02
 -1       564-6.79578E-02-6.11552E-02 2.09517E-01-1.47606E-03-1.41104E-02-1.53018E-02
 -1       565-7.69466E-02-7.30418E-02 2.45265E-01 2.43560E-03-1.10865E-02-7.92784E-03
 -1       566-2.64085E-02-2.06288E-02 7.25769E-02-2.09670E-03-5.58609E-03 2.34411E-02
 -1       567-3.55446E-02-2.73599E-02 1.00024E-01 5.27113E-04-6.58691E-03 2.46672E-02
 -1       568-3.16466E-02-2.69685E-02 9.66454E-02-5.99938E-04-1.17371E-02 3.75283E-02
 -1       569-4.31525E-02-3.64356E-02 1.30326E-01-6.42706E-04-1.15247E-02 3.14569E-02
 -1       570-5.68820E-02-5.11632E-02 1.75567E-01 4.92387E-06-1.27647E-02 2.59023E-02
 -1       571-5.48577E-02-4.93748E-02 1.69505E-01-9.07254E-04-7.76303E-03 4.03700E-02
 -1       572-7.15157E-02-6.63270E-02 2.24892E-01-1.98729E-03-1.45707E-02 1.98621E-02
 -1       573-8.27412E-02-7.60159E-02 2.63152E-01-2.23262E-03-1.23866E-02 5.76158E-02
 -1       574-6.73188E-02-6.34940E-02 2.21561E-01-8.60309E-05-1.82187E-02 6.98394E-02
 -1       575-9.19318E-02-8.55595E-02 2.92106E-01 2.61467E-03-2.05850E-02 6.43583E-02
 -1       576-1.02663E-01-9.54279E-02 3.30665E-01-2.74998E-03-1.41426E-02 7.86373E-02
 -1       577-1.14633E-01-1.10957E-01 3.79974E-01-1.40741E-03-1.80984E-02 6.35007E-02
 -1       578-8.88234E-02-8.02820E-02 2.80625E-01 2.74601E-03-1.57159E-02 4.14346E-02
 -1       579-6.63477E-02-6.06820E-02 2.06906E-01-2.12120E-03-1.08640E-02 4.83159E-02
 -1       580-1.40927E-01-1.30424E-01 4.46333E-01 5.03063E-03-2.43566E-02 5.62119E-02
 -1       581-1.31690E-01-1.22761E-01 4.20100E-01-1.58219E-03-2.49816E-02 3.86240E-02
 -1       582-8.73434E-02-7.73179E-02 2.72352E-01 2.13543E-03-1.40275E-02 2.55287E-02
 -1       583-1.03818E-01-9.90035E-02 3.30817E-01-5.86375E-03-1.88479E-02 2.86604E-02
 -1       584-1.16171E-01-1.07449E-01 3.65366E-01-1.63859E-03-2.04679E-02 7.50975E-03
 -1       585-1.18633E-01-1.12667E-01 3.83449E-01 4.16069E-03-1.74622E-02 2.65169E-02
 -1       586-1.42453E-01-1.36574E-01 4.64265E-01-7.05943E-04-1.45009E-02 1.89070E-02
 -1       587-5.95995E-02-5.50246E-02 1.88423E-01-4.90782E-04-1.30785E-02 8.35089E-02
 -1       588-4.94649E-02-4.98207E-02 1.64304E-01-4.38868E-03-1.90469E-02 7.02855E-02
 -1       589-7.23085E-02-7.64730E-02 2.57048E-01-1.91661E-06-1.42866E-02 9.19916E-02
 -1       590-1.01590E-01-9.67365E-02 3.27168E-01 1.94487E-03-1.83445E-02 8.94021E-02
 -1       591-3.41628E-02-4.34101E-02 1.31319E-01-1.67627E-03-1.25132E-02 7.89911E-02
 -1       592-5.64875E-02-5.59835E-02 1.88475E-01-9.73619E-04-2.09940E-02 8.34563E-02
 -1       593-5.70972E-02-5.39058E-02 1.84734E-01-2.45162E-03-1.13139E-02 8.95944E-02
 -1       594-3.17392E-02-3.95806E-02 1.13485E-01-1.24282E-03-1.29452E-02 6.99457E-02
 -1       595-4.27310E-02-3.94762E-02 1.36271E-01 2.40403E-03-8.84727E-03 6.51100E-02
 -1       596-4.60073E-02-4.56553E-02 1.52779E-01 1.09246E-04-1.60450E-02 5.56832E-02
 -1       597-3.40230E-02-3.35271E-02 1.08329E-01-2.67511E-03-1.38054E-02 5.57384E-02
 -1       598-4.28417E-01-1.08376E+00 2.98856E+00-5.22376E-02-8.72259E-02-1.24153E-01
 -1       599-4.98624E-01-9.44190E-01 2.69997E+00-3.32443E-02-5.11475E-02-4.08742E-02
 -1       600-4.96512E-01-7.04621E-01 2.18463E+00-1.19725E-02-3.73500E-02 3.62637E-02
 -1       601-5.19894E-01-8.16578E-01 2.45221E+00-4.29092E-02-3.99694E-02-4.84712E-04
 -1       602-4.21454E-01-7.95032E-01 2.28360E+00-3.26461E-03-3.08600E-02-1.03171E-01
 -1       603-5.18760E-01-1.34287E+00 3.66022E+00-3.51771E-02-9.96496E-02 2.90081E-02
 -1       604-6.23252E-01-1.35885E+00 3.80298E+00-3.06291E-03-9.46196E-02 1.41937E-01
 -1       605-3.55970E-01-9.42367E-01 2.50366E+00-6.67666E-02-1.99393E-02-2.17865E-01
 -1       606-3.55169E-01-1.13098E+00 3.00229E+00-6.53984E-02-3.97995E-02-1.79114E-01
 -1       607-1.60174E-01-1.17661E+00 2.97448E+00-1.09254E-01-5.29204E-02-3.01885E-01
 -1       608-3.56507E-01-1.28731E+00 3.38838E+00-8.32496E-02-6.41112E-02-1.52403E-01
 -1       609-3.94452E-01-1.39515E+00 3.68684E+00-3.92673E-02-8.45197E-02-4.77141E-02
 -1       610-4.37672E-01-1.50542E+00 3.91461E+00-4.31546E-02-1.39768E-01 1.62525E-02
 -1       611-1.53722E-01-1.44746E-01 4.90598E-01-3.88024E-03-2.10690E-02 6.74940E-02
 -1       612-1.22965E-01-1.22975E-01 4.18281E-01 5.22179E-05-1.82970E-02 9.30463E-02
 -1       613-1.52836E-01-1.49139E-01 4.93996E-01 2.84200E-03-2.06203E-02 8.69953E-02
 -1       614-1.55318E-01-1.53036E-01 5.03512E-01 1.84294E-04-2.07449E-02 1.07685E-01
 -1       615-1.81336E-01-1.74489E-01 6.03113E-01-5.76954E-03-1.63661E-02 8.71449E-02
 -1       616-1.62470E-01-1.58930E-01 5.41602E-01-8.28962E-04-2.00709E-02 4.95478E-02
 -1       617-2.07462E-01-2.02989E-01 6.75142E-01-1.92588E-03-3.04035E-02 6.24329E-02
 -1       618-2.11206E-01-2.08164E-01 7.03461E-01 6.87604E-03-2.44097E-02 8.41982E-02
 -1       619-2.02334E-01-1.98542E-01 6.66428E-01 1.61343E-03-1.82887E-02 3.94987E-02
 -1       620-2.32806E-01-2.18651E-01 7.44600E-01-5.28174E-03-1.90581E-02 3.54606E-02
 -1       621-1.72949E-01-1.63218E-01 5.55284E-01-4.60662E-03-1.56896E-02 2.15583E-02
 -1       622-1.81916E-01-1.77275E-01 5.92144E-01-2.22438E-03-2.08053E-02 3.49492E-02
 -1       623-2.07053E-01-2.00874E-01 6.70053E-01-5.54215E-04-2.35539E-02 1.23790E-02
 -1       624-1.02216E-01-1.02533E-01 3.31906E-01-1.57299E-03-2.19306E-02 1.06418E-01
 -1       625-1.17045E-01-1.21086E-01 4.08200E-01 5.43343E-04-1.49131E-02 1.19492E-01
 -1       626-1.52690E-01-1.47245E-01 5.00093E-01-2.48757E-04-2.78420E-02 1.14124E-01
 -1       627-6.52830E-02-6.12801E-02 2.15245E-01-1.58350E-03-1.31239E-02 1.01252E-01
 -1       628-8.95845E-02-8.64153E-02 2.94887E-01-4.69425E-04-2.09814E-02 1.07713E-01
 -1       629-8.54078E-02-6.76119E-02 2.75998E-01 7.16546E-03-1.50532E-02 1.13265E-01
 -1       630-7.69163E-01-1.24364E+00 3.68141E+00 4.71579E-02-3.94806E-02 2.21123E-01
 -1       631-7.03048E-01-1.33794E+00 3.83255E+00 3.15683E-02-8.64906E-02 2.00532E-01
 -1       632-7.33275E-01-1.27436E+00 3.77359E+00 4.28823E-02-4.37637E-02 2.82858E-01
 -1       633-8.36268E-01-1.11650E+00 3.41073E+00 6.96936E-02-3.14550E-02 1.93744E-01
 -1       634-5.82899E-01-1.41988E+00 3.90825E+00 3.27351E-02-1.02459E-01 1.81603E-01
 -1       635-3.10614E-01-3.12181E-01 1.05765E+00-8.25042E-03-2.21304E-02 1.55572E-01
 -1       636-3.62129E-01-3.60207E-01 1.19504E+00 7.96545E-03-3.65598E-02 1.57695E-01
 -1       637-3.80673E-01-3.80006E-01 1.25807E+00 4.75210E-03-4.50067E-02 1.36780E-01
 -1       638-4.19271E-01-4.24948E-01 1.41182E+00-2.55052E-03-2.88568E-02 1.08014E-01
 -1       639-3.72204E-01-3.73541E-01 1.25295E+00 8.89484E-03-3.28897E-02 1.12096E-01
 -1       640-2.61100E-01-2.49520E-01 8.47929E-01-1.45107E-03-3.06827E-02 1.70706E-01
 -1       641-2.77611E-01-2.73088E-01 9.20336E-01 5.81023E-04-3.76539E-02 1.50344E-01
 -1       642-3.73644E-01-3.71201E-01 1.23048E+00-3.18355E-03-4.22756E-02 8.38094E-02
 -1       643-3.34801E-01-3.27333E-01 1.11925E+00-1.10737E-02-2.84475E-02 1.17718E-01
 -1       644-2.91024E-01-2.86861E-01 9.64037E-01-7.07812E-04-3.64833E-02 1.20308E-01
 -1       645-2.88752E-01-2.83933E-01 9.43553E-01 1.89992E-03-2.83302E-02 1.44374E-01
 -1       646-2.24265E-01-2.32424E-01 7.75674E-01-2.43287E-04-2.20451E-02 1.61095E-01
 -1       647-2.84247E-01-2.85802E-01 9.63559E-01-1.72540E-03-3.90421E-02 1.73572E-01
 -1       648-3.58344E-01-3.67417E-01 1.20719E+00-3.32063E-03-3.87910E-02 1.62066E-01
 -1       649-4.62272E-01-4.65458E-01 1.54811E+00 5.51248E-03-3.94241E-02 1.01007E-01
 -1       650-4.62121E-01-4.57735E-01 1.52812E+00-7.12094E-04-4.19203E-02 7.16099E-02
 -1       651-4.85552E-01-4.90168E-01 1.60980E+00-1.88783E-03-4.00977E-02 1.19537E-01
 -1       652-4.09307E-01-4.07743E-01 1.38069E+00-3.89133E-03-1.74166E-02 1.57705E-01
 -1       653-4.60419E-01-4.65494E-01 1.55403E+00 7.38257E-03-4.00928E-02 1.44590E-01
 -1       654-5.15374E-01-5.22764E-01 1.74218E+00 2.44415E-05-3.63981E-02 8.19084E-02
 -1       655-3.33150E-01-3.31609E-01 1.11250E+00-2.14248E-03-3.72466E-02 1.80177E-01
 -1       656-1.72695E-01-2.00436E-01 5.80220E-01-1.41064E-02-2.74116E-02 1.53724E-01
 -1       657-2.08484E-01-2.09346E-01 7.05781E-01-3.28259E-03-4.11502E-02 1.66275E-01
 -1       658-2.00118E-01-2.15686E-01 7.07138E-01 3.22079E-03-2.36056E-02 1.68408E-01
 -1       659-3.69189E-01-3.68038E-01 1.22934E+00 1.69102E-03-2.53651E-02 5.35791E-02
 -1       660-4.09430E-01-3.95133E-01 1.33407E+00-6.87963E-03-2.63410E-02 4.71954E-02
 -1       661-4.30179E-01-4.23366E-01 1.41251E+00-2.55579E-03-3.91673E-02 3.34325E-03
 -1       662-4.37645E-01-4.28373E-01 1.45423E+00 9.97051E-03-2.83702E-02 4.35013E-02
 -1       663-4.80410E-01-4.80939E-01 1.61120E+00-3.33820E-03-2.56875E-02 2.97356E-02
 -1       664-3.00523E-01-2.92185E-01 9.68775E-01-5.36499E-04-2.85973E-02 9.87216E-02
 -1       665-2.47529E-01-2.52618E-01 8.38449E-01-1.10853E-03-2.07087E-02 1.32610E-01
 -1       666-2.78678E-01-2.74624E-01 9.15227E-01 5.76368E-03-3.09591E-02 8.14050E-02
 -1       667-3.14705E-01-3.10857E-01 1.05073E+00-8.08321E-05-2.78874E-02 6.52278E-02
 -1       668-3.30283E-01-3.22897E-01 1.08084E+00-4.39194E-03-2.46041E-02 2.86873E-02
 -1       669-3.41661E-01-3.39720E-01 1.13043E+00-2.02932E-03-2.96946E-02 4.67828E-02
 -1       670-3.78297E-01-3.73959E-01 1.23983E+00 5.32578E-05-3.20113E-02 1.70282E-02
 -1       671-2.06758E-01-2.00485E-01 6.66606E-01-4.62209E-03-2.99692E-02 1.49818E-01
 -1       672-2.12369E-01-2.08529E-01 7.03865E-01 2.61777E-03-3.34843E-02 1.27826E-01
 -1       673-1.35148E-01-1.42751E-01 4.39914E-01-1.11788E-02-2.56006E-02 1.39812E-01
 -1       674-1.74230E-01-1.71190E-01 5.77799E-01 1.58658E-03-3.12245E-02 1.47824E-01
 -1       675-1.62349E-01-1.33233E-01 5.35909E-01 1.26145E-02-1.95316E-02 1.52079E-01
 -1       676-1.73518E-01-1.73754E-01 5.91172E-01-7.66750E-03-1.81975E-02 1.19537E-01
 -1       677-2.14864E-01-2.13578E-01 6.95072E-01 7.67594E-03-2.51901E-02 1.24166E-01
 -1       678-2.19923E-01-2.14577E-01 7.19266E-01 8.67378E-05-3.53396E-02 1.05443E-01
 -1       679-2.44785E-01-2.45575E-01 8.16121E-01-2.72891E-03-2.03407E-02 8.35273E-02
 -1       680-1.58892E-01-1.70146E-01 5.56364E-01 2.88724E-04-2.06588E-02 1.40238E-01
 -1       681-2.74412E-01-2.64872E-01 8.94074E-01-2.25645E-03-3.19281E-02 5.74649E-02
 -1       682-1.46219E-01-1.38216E-01 4.67243E-01-1.73455E-03-2.36820E-02 1.30415E-01
 -1       683-9.71100E-02-1.01414E-01 3.10833E-01-9.63647E-03-2.25527E-02 1.18497E-01
 -1       684-1.21143E-01-1.19119E-01 4.03576E-01 1.74268E-03-2.57611E-02 1.27381E-01
 -1       685-1.19183E-01-9.78570E-02 3.96056E-01 1.15894E-02-1.63074E-02 1.33985E-01
 -1       686-2.46955E-01-2.38802E-01 7.99935E-01-1.41818E-03-2.87000E-02 3.16569E-03
 -1       687-2.54223E-01-2.44941E-01 8.35558E-01 7.99679E-03-2.37390E-02 3.30858E-02
 -1       688-2.84735E-01-2.80108E-01 9.43411E-01-3.14159E-03-2.62619E-02 1.89799E-02
 -1       689-4.44979E-01-5.83979E-01 1.80109E+00-1.38006E-02-3.13681E-02 9.11832E-02
 -1       690-3.90462E-01-5.46892E-01 1.69903E+00-1.24274E-02-3.10053E-02 3.05957E-02
 -1       691-3.15942E-01-4.92756E-01 1.44646E+00-4.00270E-02-3.45591E-02-1.40319E-02
 -1       692-3.35835E-01-6.26607E-01 1.81951E+00-3.65315E-02-1.29322E-02-1.01374E-01
 -1       693-3.39019E-01-7.57005E-01 2.00616E+00-7.18753E-02 5.70273E-03-1.61946E-01
 -1       694-3.84521E-01-4.88339E-01 1.53870E+00-1.27039E-02-1.86514E-02 1.17669E-01
 -1       695-5.16185E-01-6.41685E-01 2.01470E+00-1.19947E-02-3.36254E-02 1.10075E-01
 -1       696-3.45338E-01-4.18821E-01 1.35111E+00 5.79094E-03-2.80139E-02 1.40342E-01
 -1       697-5.56830E-01-6.64569E-01 2.10079E+00-1.08454E-02-4.73383E-02 1.36705E-01
 -1       698-4.51176E-01-4.48501E-01 1.51247E+00-3.08917E-04-3.16447E-02 1.72705E-01
 -1       699-5.17295E-01-5.26182E-01 1.76655E+00-1.10208E-02-3.55644E-02 1.36086E-01
 -1       700-5.71570E-01-5.79175E-01 1.91776E+00 1.55792E-03-4.85181E-02 1.11374E-01
 -1       701-5.53422E-01-5.68498E-01 1.87235E+00 3.98112E-03-4.63968E-02 1.43152E-01
 -1       702-5.78070E-01-5.82847E-01 1.94706E+00 5.57491E-03-4.21482E-02 6.93657E-02
 -1       703-6.11561E-01-6.38259E-01 2.08895E+00-9.92351E-03-4.24684E-02 7.31064E-02
 -1       704-5.36667E-01-5.32069E-01 1.78234E+00-6.33919E-03-2.51703E-02 3.58663E-02
 -1       705-5.45326E-01-5.55270E-01 1.83776E+00-2.26001E-03-4.02635E-02 5.61484E-02
 -1       706-5.96825E-01-5.98659E-01 1.98021E+00 2.27243E-03-3.98420E-02 2.17435E-02
 -1       707-3.60730E-01-3.67080E-01 1.23280E+00-2.08859E-03-2.97244E-02 1.80434E-01
 -1       708-4.23182E-01-4.29500E-01 1.43511E+00 8.80384E-04-3.87400E-02 1.76363E-01
 -1       709-2.26589E-01-2.29796E-01 7.62279E-01-4.77531E-03-3.36684E-02 1.75231E-01
 -1       710-2.81698E-01-2.93344E-01 9.56557E-01 1.42090E-03-3.09439E-02 1.81879E-01
 -1       711-2.53695E-01-2.57572E-01 8.71429E-01 1.49955E-02-2.34034E-02 1.80240E-01
 -1       712-4.83547E-01-5.10620E-01 1.66955E+00 4.95161E-03-4.03503E-02 1.72448E-01
 -1       713-5.42776E-01-5.66723E-01 1.86659E+00-1.28618E-02-5.16537E-02 1.51153E-01
 -1       714-5.31922E-01-5.76512E-01 1.85893E+00-6.52724E-03-2.84155E-02 1.54575E-01
 -1       715-5.99335E-01-6.39170E-01 2.08413E+00 1.55685E-03-4.39040E-02 1.42727E-01
 -1       716-6.51631E-01-6.92442E-01 2.26658E+00 3.32052E-03-4.12931E-02 1.22647E-01
 -1       717-6.62500E-01-6.91922E-01 2.26838E+00-3.97420E-03-4.82732E-02 9.61744E-02
 -1       718-6.59177E-01-6.61691E-01 2.18813E+00-4.75113E-03-4.84740E-02 2.01543E-02
 -1       719-6.46213E-01-6.66451E-01 2.21233E+00 8.64983E-03-3.91536E-02 6.89653E-02
 -1       720-6.93625E-01-7.30241E-01 2.41249E+00-4.06802E-03-4.56415E-02 5.34538E-02
 -1       721-4.12641E-01-4.30669E-01 1.40550E+00-5.34065E-03-4.21102E-02 1.90355E-01
 -1       722-4.37487E-01-4.79292E-01 1.53929E+00-2.84340E-03-4.37466E-02 1.84942E-01
 -1       723-5.05225E-01-5.37624E-01 1.76622E+00-1.07499E-03-5.60589E-02 1.67623E-01
 -1       724-2.86437E-01-2.82545E-01 9.48011E-01-1.22045E-02-3.06622E-02 1.73696E-01
 -1       725-3.44108E-01-3.52972E-01 1.18600E+00-9.28107E-04-3.66486E-02 1.84214E-01
 -1       726-3.16492E-01-2.97995E-01 1.07181E+00 1.49219E-02-3.35527E-02 1.88866E-01
 -1       727-6.48919E-01-7.06326E-01 2.30708E+00-6.03255E-03-3.31119E-02 1.37024E-01
 -1       728-5.66168E-01-6.20715E-01 2.03132E+00-1.46810E-03-3.64864E-02 1.60940E-01
 -1       729-6.18725E-01-6.84569E-01 2.22233E+00-4.32634E-03-4.40478E-02 1.42519E-01
 -1       730-5.95846E-01-6.83031E-01 2.21033E+00-6.51463E-03-5.14116E-02 1.41898E-01
 -1       731-6.76321E-01-7.83791E-01 2.51006E+00-1.70480E-03-4.52530E-02 1.26321E-01
 -1       732-7.01924E-01-7.59827E-01 2.49718E+00-1.08150E-03-4.23753E-02 1.06658E-01
 -1       733-7.46164E-01-8.46992E-01 2.72058E+00-4.84309E-03-5.13622E-02 9.66644E-02
 -1       734-7.46435E-01-7.97570E-01 2.59782E+00-7.04608E-04-4.34829E-02 6.58726E-02
 -1       735-7.35442E-01-8.07621E-01 2.62249E+00 3.42133E-03-4.75531E-02 8.45260E-02
 -1       736-7.91687E-01-8.81475E-01 2.81627E+00 8.74529E-03-4.15709E-02 6.69725E-02
 -1       737-4.73326E-01-5.15814E-01 1.69939E+00-4.54135E-03-5.00412E-02 1.68196E-01
 -1       738-5.05387E-01-5.85958E-01 1.87049E+00-3.62970E-03-4.11891E-02 1.56455E-01
 -1       739-3.23510E-01-3.80722E-01 1.18103E+00-1.43942E-02-3.94107E-02 1.67742E-01
 -1       740-3.97755E-01-4.30365E-01 1.41485E+00-7.50959E-03-4.83503E-02 1.62245E-01
 -1       741-1.98479E-02-2.38240E-02 7.28241E-02-2.03796E-03-1.26682E-02 6.16336E-02
 -1       742-2.58187E-02-2.04876E-02 8.39727E-02 3.76250E-03-1.46929E-02 6.88333E-02
 -1       743-2.11056E-02-2.22889E-02 7.10022E-02 8.39411E-05-1.08727E-02 5.57241E-02
 -1       744-2.71123E-02-2.50194E-02 8.55665E-02 2.30959E-03-8.90170E-03 4.84116E-02
 -1       745-1.35621E-02-1.88575E-02 5.47067E-02 1.08858E-03-1.07669E-02 5.48040E-02
 -1       746-1.06441E-02-1.05387E-02 3.49345E-02-2.41720E-03-7.44514E-03 4.69628E-02
 -1       747-2.17000E-01-7.97458E-01 2.04261E+00-1.01066E-01 8.13111E-03-2.94601E-01
 -1       748-8.97719E-02-7.94082E-01 2.05414E+00-9.65224E-02 7.10314E-02-3.28134E-01
 -1       749-5.06674E-02-5.29952E-02 1.70595E-01 2.31196E-03-1.32108E-02 9.10749E-02
 -1       750-1.76324E-02-1.28538E-02 4.94443E-02-1.08628E-04-8.20866E-03 2.45691E-02
 -1       751-1.96205E-02-1.31801E-02 4.99801E-02-6.23431E-04-5.36415E-03 1.57897E-02
 -1       752-2.07093E-02-1.77358E-02 6.31575E-02-2.48056E-03-1.09899E-02 3.95125E-02
 -1       753-1.20142E-02-7.51882E-03 2.91988E-02-1.61133E-03-6.86760E-03 2.62061E-02
 -1       754-1.66228E-02-1.36806E-02 4.81696E-02 1.30589E-03-2.91897E-03 3.34758E-02
 -1       755-1.29634E-02-1.29807E-02 4.23061E-02-3.70024E-04-9.40515E-03 4.06245E-02
 -1       756-1.54978E-02-9.40117E-03 3.74509E-02 1.33250E-03-6.03720E-03 1.19871E-02
 -1       757-5.88405E-01-6.35190E-01 2.01716E+00 4.48577E-02-4.10697E-02-4.49384E-02
 -1       758-6.15449E-01-6.41787E-01 2.11913E+00 6.48540E-03-4.50281E-02-2.78766E-02
 -1       759-6.13844E-01-6.70206E-01 2.19953E+00 6.99488E-03-3.09360E-02 3.14442E-03
 -1       760-6.55327E-01-7.13293E-01 2.29461E+00 2.78385E-02-6.99219E-02-3.29175E-02
 -1       761-6.72100E-01-7.01058E-01 2.33224E+00 2.92433E-03-4.32621E-02-3.63601E-02
 -1       762-7.55627E-01-7.94959E-01 2.61511E+00 2.70802E-03-3.74263E-02-2.21665E-02
 -1       763-8.82654E-02-8.02392E-02 2.73894E-01 3.29882E-04-1.56676E-02 8.60827E-03
 -1       764-1.02082E-01-9.73817E-02 3.29965E-01 2.12875E-03-1.41808E-02-7.62481E-03
 -1       765-9.07103E-02-8.22707E-02 2.86217E-01-3.18941E-03-1.22606E-02-5.85244E-03
 -1       766-3.78164E-03-6.59530E-03 1.30479E-02-2.20462E-04-3.57921E-03 3.03725E-02
 -1       767 2.52770E-04-2.88480E-03 5.47347E-03-2.50648E-04-3.16912E-03 3.29349E-02
 -1       768-3.97637E-03-4.22870E-03 1.55056E-02-1.01937E-03-5.60227E-03 3.46150E-02
 -1       769-7.54636E-03-8.20162E-03 2.77210E-02-6.21012E-04-7.31940E-03 4.29562E-02
 -1       770-1.94379E-03-1.31517E-03 5.58301E-03-9.18172E-04-2.96078E-03 2.48611E-02
 -1       771-5.30411E-03-5.21727E-03 1.53325E-02-7.14065E-04-3.01100E-03 2.62688E-02
 -1       772-8.76348E-03-5.16292E-03 1.99291E-02 6.25375E-04-4.25131E-03 2.04346E-02
 -1       773 2.32295E-03 2.91144E-04-4.92125E-03-1.07907E-05-5.79184E-03 2.23386E-02
 -1       774 8.12018E-04-1.59528E-06-4.81905E-03-9.26641E-04-5.00778E-03 2.17175E-02
 -1       775-1.15529E-02-4.27083E-03 2.33083E-02-3.97209E-04-3.68046E-03 1.24404E-02
 -1       776-1.34805E-02-5.53930E-03 2.62058E-02-1.05291E-03-3.19592E-03 6.35700E-03
 -1       777-1.31420E-02-6.89669E-03 2.93822E-02 1.01703E-04-2.93938E-03 8.78942E-04
 -1       778-5.01972E-01-1.20259E+00 3.29182E+00 1.62560E-01 1.80903E-02 4.47825E-01
 -1       779-5.77581E-01-1.41716E+00 3.73147E+00 5.37696E-02-1.46107E-02 4.19261E-01
 -1       780-6.55672E-01-1.28185E+00 3.68823E+00 7.58197E-02-5.60948E-02 3.31260E-01
 -1       781-6.00433E-01-1.45783E+00 3.95451E+00 8.47729E-02-4.74617E-02 2.98055E-01
 -1       782-5.33773E-01-1.50572E+00 4.08441E+00 4.28918E-02-1.35627E-01 2.16850E-01
 -1       783-6.31447E-01-1.02061E+00 2.96455E+00 1.29824E-01 3.58380E-02 4.94916E-01
 -1       784-7.57976E-03-2.73683E-03 1.36488E-02-7.40412E-04-3.44210E-03-6.05809E-03
 -1       785-1.33036E-02-7.02864E-03 2.90220E-02-5.32107E-04-5.23119E-03-4.09692E-03
 -1       786-1.02325E-02-4.75075E-03 2.14910E-02 2.76198E-04-3.04352E-03-7.24410E-03
 -1       787-1.27077E-02-9.15482E-03 3.33244E-02-3.26616E-04-4.35370E-03-8.31809E-03
 -1       788-4.86744E-01-5.11094E-01 1.68122E+00 1.68200E-02-5.61393E-02-6.55564E-02
 -1       789-5.73090E-01-5.97291E-01 1.94755E+00 2.28146E-03-2.55904E-02-6.91048E-02
 -1       790-4.72545E-01-4.65073E-01 1.56779E+00 8.02824E-03-2.13622E-02-6.31220E-02
 -1       791-5.02838E-01-4.99080E-01 1.67520E+00 1.24904E-04-4.55794E-02-6.32797E-02
 -1       792-6.50447E-01-6.65480E-01 2.20692E+00 9.91316E-03-4.55565E-02-4.14467E-02
 -1       793-6.58515E-01-6.93260E-01 2.28132E+00 1.95265E-03-3.54736E-02-3.35324E-02
 -1       794-7.55251E-01-7.83709E-01 2.56360E+00-1.37247E-03-4.75713E-02-2.40571E-02
 -1       795-6.43259E-01-6.58616E-01 2.18239E+00 7.69510E-03-4.27226E-02-3.04456E-02
 -1       796-7.07095E-01-7.25270E-01 2.39792E+00-1.85426E-03-5.04963E-02-3.25842E-03
 -1       797-5.03749E-01-5.26662E-01 1.70867E+00 1.59461E-02-5.04604E-02-6.64276E-02
 -1       798-6.02330E-01-6.12736E-01 2.02591E+00-2.59991E-03-3.60384E-02-5.68595E-02
 -1       799-6.42999E-01-6.59042E-01 2.19056E+00-8.13425E-04-4.50969E-02-7.87913E-03
 -1       800-7.76300E-01-8.34590E-01 2.72605E+00 1.39877E-02-4.62401E-02 2.71658E-02
 -1       801-7.47672E-01-8.02081E-01 2.63094E+00-3.82559E-03-4.20002E-02 3.10348E-02
 -1       802-7.23655E-01-7.55142E-01 2.48521E+00 7.78763E-03-5.06200E-02 3.63428E-02
 -1       803-1.12665E-01-1.15637E-01 3.66699E-01 2.07082E-03-1.93262E-02-4.13530E-02
 -1       804-1.35694E-01-1.35771E-01 4.44209E-01 5.23668E-03-2.31000E-02-3.30771E-02
 -1       805-1.33389E-01-1.27950E-01 4.34203E-01-1.92001E-04-2.08481E-02-2.72069E-02
 -1       806-1.43609E-01-1.35164E-01 4.63252E-01 1.22293E-03-2.17335E-02-3.94696E-02
 -1       807-1.67170E-01-1.60735E-01 5.39505E-01-3.64715E-03-2.05674E-02-2.95032E-02
 -1       808-1.39750E-01-1.44924E-01 4.70691E-01 4.29385E-03-2.32789E-02-5.16301E-02
 -1       809-1.23942E-01-1.16117E-01 3.97218E-01 1.55585E-03-1.92999E-02-1.54066E-02
 -1       810-1.42653E-01-1.36962E-01 4.65538E-01-3.31319E-03-1.96796E-02-3.81842E-03
 -1       811-1.17516E-01-1.10611E-01 3.77182E-01-8.45835E-04-1.43200E-02-7.27379E-03
 -1       812-1.85327E-01-1.77043E-01 5.99118E-01 2.48738E-03-1.96942E-02-1.31705E-02
 -1       813-1.70115E-01-1.65553E-01 5.61318E-01-2.66602E-03-1.97876E-02 1.41878E-03
 -1       814-1.57273E-01-1.44785E-01 4.95250E-01 5.82949E-04-2.08204E-02 1.16422E-02
 -1       815-1.87027E-01-1.98051E-01 6.33558E-01 9.01018E-03-1.97906E-02-5.77843E-02
 -1       816-2.28719E-01-2.37005E-01 7.50692E-01 4.80701E-03-2.95153E-02-5.88452E-02
 -1       817-1.93575E-01-1.75312E-01 6.15357E-01 1.37558E-03-1.77578E-02-5.61022E-02
 -1       818-2.62778E-01-2.71466E-01 8.80018E-01 1.03679E-02-3.20670E-02-4.56460E-02
 -1       819-2.68139E-01-2.61339E-01 8.86829E-01 3.92901E-04-3.23784E-02-3.86048E-02
 -1       820-2.72533E-01-2.60948E-01 8.91008E-01 2.93364E-03-2.87225E-02-5.36661E-02
 -1       821-3.17659E-01-3.09477E-01 1.03687E+00-3.98617E-03-2.89150E-02-4.14490E-02
 -1       822-2.58492E-01-2.72863E-01 8.81165E-01 9.32476E-03-3.11200E-02-7.11553E-02
 -1       823-2.52575E-01-2.42722E-01 8.21825E-01 1.11800E-03-2.59577E-02-2.44870E-02
 -1       824-2.90619E-01-2.78031E-01 9.42261E-01-4.56974E-03-2.36464E-02-1.25469E-02
 -1       825-1.86396E-01-1.90898E-01 6.18730E-01 3.12454E-03-2.42957E-02-5.06877E-02
 -1       826-2.26045E-01-2.23919E-01 7.50955E-01-3.90330E-03-2.41085E-02-4.31461E-02
 -1       827-2.47188E-01-2.38287E-01 8.09049E-01-4.51056E-04-1.93044E-02-1.45326E-02
 -1       828-3.43256E-01-3.34976E-01 1.12759E+00 3.58294E-03-2.75687E-02-1.75704E-02
 -1       829-3.27004E-01-3.23945E-01 1.08730E+00-1.32946E-03-2.82042E-02 3.41424E-03
 -1       830-3.08428E-01-3.00555E-01 1.00890E+00 5.41949E-03-2.94838E-02 1.06049E-02
 -1       831-3.18016E-01-3.44178E-01 1.08969E+00 1.75771E-02-2.81333E-02-7.30713E-02
 -1       832-3.71955E-01-4.04188E-01 1.27261E+00-1.04471E-03-4.75847E-02-7.64749E-02
 -1       833-3.36512E-01-3.08345E-01 1.08191E+00 2.42517E-03-2.46408E-02-7.46896E-02
 -1       834-4.29179E-01-4.34007E-01 1.44468E+00 1.14012E-03-3.86885E-02-4.86185E-02
 -1       835-4.51988E-01-4.48049E-01 1.50222E+00-1.51500E-03-3.04162E-02-4.17256E-02
 -1       836-4.39602E-01-4.28360E-01 1.45754E+00 7.43398E-03-3.93686E-02-6.19943E-02
 -1       837-5.14735E-01-5.09634E-01 1.69926E+00-4.86168E-03-3.04940E-02-5.44686E-02
 -1       838-4.10323E-01-4.35914E-01 1.40822E+00 1.63100E-02-4.08004E-02-9.04048E-02
 -1       839-4.31071E-01-4.20629E-01 1.41836E+00 2.88012E-03-3.63374E-02-2.98724E-02
 -1       840-4.76182E-01-4.78791E-01 1.58853E+00-4.33489E-03-3.94475E-02-1.54365E-02
 -1       841-3.28601E-01-3.42766E-01 1.10374E+00 6.39133E-03-3.24172E-02-6.70600E-02
 -1       842-3.92691E-01-3.93342E-01 1.31587E+00-4.14889E-03-3.37018E-02-5.70115E-02
 -1       843-4.27821E-01-4.20063E-01 1.41793E+00 5.20654E-05-2.78792E-02-1.69581E-02
 -1       844-5.47743E-01-5.50475E-01 1.83480E+00 7.44864E-03-3.62895E-02-2.19900E-02
 -1       845-5.29745E-01-5.35581E-01 1.78989E+00-4.75695E-03-3.34264E-02 3.73202E-03
 -1       846-5.06612E-01-4.96894E-01 1.67129E+00 1.99943E-04-3.25865E-02 2.14578E-02
 -1       847-7.54199E-01-1.16942E+00 3.49155E+00 6.66452E-02 1.05895E-02 3.30427E-01
 -1       848-6.54972E-01-1.04226E+00 3.10975E+00 8.15358E-02 3.02384E-02 3.38821E-01
 -1       849-6.97877E-01-1.04255E+00 3.12926E+00 8.98974E-02-4.02017E-03 2.99109E-01
 -1       850-7.16724E-01-1.01630E+00 3.07862E+00 2.76467E-02-2.61747E-02 1.95043E-01
 -1       851-7.27606E-01-9.48289E-01 3.00307E+00 4.35014E-02 5.92360E-03 1.88954E-01
 -1       852-4.66708E-01-1.53426E+00 4.05848E+00 2.90545E-03-1.74888E-01 1.31677E-01
 -1       853-7.30714E-01-9.01108E-01 2.86455E+00 1.45755E-02-4.46947E-02 9.99699E-02
 -1       854-1.62148E-01-1.69739E-01 5.39134E-01 4.34151E-03-2.49295E-02-4.92523E-02
 -1       855-2.02634E-01-1.93255E-01 6.51068E-01 3.80973E-04-2.80803E-02-3.51633E-02
 -1       856-2.95133E-01-3.11889E-01 9.88961E-01 7.79041E-03-3.68426E-02-6.48935E-02
 -1       857-3.63785E-01-3.53390E-01 1.18384E+00 1.11821E-03-3.88489E-02-4.61334E-02
 -1       858-4.71822E-01-4.91742E-01 1.57897E+00 1.85903E-02-5.63702E-02-6.63554E-02
 -1       859-5.67658E-01-5.63428E-01 1.87427E+00 2.02471E-03-5.54974E-02-5.15054E-02
 -1       860-6.59309E-01-7.49389E-01 2.43447E+00-3.12463E-03-3.37996E-02 1.75503E-02
 -1       861-7.87360E-01-8.39571E-01 2.73969E+00 1.52848E-02-3.53076E-02 3.47950E-02
 -1       862-7.69805E-01-8.39524E-01 2.72484E+00 4.56412E-03-4.49833E-02-2.26424E-03
 -1       863-7.11081E-01-8.34970E-01 2.68213E+00 2.55355E-02-4.09859E-02 7.95836E-02
 -1       864-7.93649E-01-8.85957E-01 2.82787E+00 1.07868E-02-5.34858E-02 1.29998E-02
 -1       865-7.90860E-01-8.83567E-01 2.86457E+00 9.39714E-04-4.00372E-02 4.52813E-02
 -1       866-2.25149E-01-2.17613E-01 7.39452E-01 3.57186E-03-2.05109E-02-8.16985E-03
 -1       867-2.02013E-01-1.96662E-01 6.67866E-01-4.59047E-03-1.80840E-02-1.54626E-02
 -1       868-3.99287E-01-3.92975E-01 1.32664E+00 5.54818E-03-2.67672E-02-1.02761E-02
 -1       869-3.65979E-01-3.62733E-01 1.22409E+00-5.86304E-03-2.38367E-02-2.17097E-02
 -1       870-6.19135E-01-6.17472E-01 2.07899E+00 6.81174E-03-3.80241E-02-4.42494E-03
 -1       871-5.72193E-01-5.81134E-01 1.94452E+00-5.08573E-03-3.39690E-02-2.07552E-02
 -1       872 9.70535E-04-3.26183E-04-1.04658E-03 1.36896E-04-1.45510E-04 5.07450E-04
 -1       873 1.57280E-03 6.14936E-04-3.29348E-03 1.62398E-04-4.12530E-04 1.25727E-03
 -1       874 1.96899E-01 2.08341E-01-7.89068E-01 7.67083E-03 1.24140E-01 6.09086E-02
 -1       875 2.32949E-01 2.53899E-01-8.26913E-01-4.29602E-03 7.92225E-03-3.84417E-05
 -1       876 2.17314E-01 2.44195E-01-7.63533E-01 8.90354E-04-4.37230E-03 2.02878E-02
 -1       877 2.04388E-01 2.31280E-01-7.27144E-01-3.81507E-03-1.13122E-02 1.95622E-02
 -1       878 2.11474E-01 2.39387E-01-7.79518E-01-1.41460E-03-1.53629E-03 2.60635E-02
 -1       879 1.80825E-01 1.90712E-01-6.01153E-01-8.99096E-03-5.75530E-03 4.65057E-03
 -1       880 1.87138E-01 1.97010E-01-6.50984E-01 9.01100E-04-2.09596E-02 2.72419E-03
 -1       881 1.31787E-01 1.64537E-01-5.13178E-01-7.50532E-03-3.33250E-03 3.56328E-03
 -1       882 1.48167E-01 1.72324E-01-5.48462E-01-8.41563E-04 6.56028E-03 4.81831E-03
 -1       883 1.17864E-01 1.30050E-01-4.14666E-01-3.28391E-03-1.43596E-03 3.15267E-03
 -1       884 1.24241E-01 1.37317E-01-4.43738E-01 2.60949E-03-6.24103E-03-1.78236E-03
 -1       885 8.78553E-02 1.06031E-01-3.31373E-01-4.52719E-03 4.29799E-04 7.87447E-03
 -1       886 9.87206E-02 1.15248E-01-3.65578E-01-5.20172E-03 1.70639E-03 4.38794E-03
 -1       887 6.62635E-02 4.74149E-02-2.00459E-01-2.69926E-03-3.48696E-03-1.96328E-03
 -1       888 6.58708E-02 7.77536E-02-2.58308E-01-2.27562E-03 8.85848E-03 5.49207E-03
 -1       889 8.23275E-02 9.00398E-02-2.92720E-01-2.44596E-04-1.44003E-03 1.14463E-02
 -1       890 4.86897E-02 3.35949E-02-1.40629E-01-2.27137E-03-2.33941E-03-3.60726E-03
 -1       891 4.82475E-02 5.67762E-02-1.97326E-01-7.39712E-03 2.01665E-03 5.27504E-03
 -1       892 3.54171E-02 4.20514E-02-1.42866E-01-5.30801E-03 3.77695E-03 2.63046E-03
 -1       893 3.19478E-02 2.55790E-02-9.33239E-02-3.11582E-03-1.24800E-03 3.59288E-06
 -1       894 3.78944E-02 2.47203E-02-1.02486E-01-4.00279E-04-1.44484E-03-4.75019E-03
 -1       895 1.55032E-02 2.00824E-02-6.19419E-02-1.14762E-03 8.75960E-04 2.11797E-03
 -1       896 2.11732E-02 2.29184E-02-7.48717E-02 4.70165E-04 7.47397E-04 2.09894E-03
 -1       897 1.24215E-02 7.94189E-03-3.03090E-02-2.12324E-04-5.64644E-04 1.58532E-03
 -1       898 1.36283E-02 1.22090E-02-4.14538E-02 1.06519E-04-7.60246E-04-4.75682E-04
 -1       899 3.15867E-03 4.12182E-03-1.19320E-02-3.79242E-05 2.00614E-04 2.04209E-03
 -1       900 6.34491E-03 6.43906E-03-2.18469E-02-8.87540E-04 1.10365E-03 2.71436E-03
 -1       901 1.22640E-02 1.21444E-02-4.14569E-02-6.18227E-04-5.96159E-03-1.74778E-02
 -1       902 3.43757E-03 7.08498E-03-2.05578E-02-8.61935E-04-5.11426E-03-1.97421E-02
 -1       903-2.63061E-04 2.98071E-03-7.02907E-03 7.15548E-04-2.23967E-03-1.20684E-02
 -1       904 1.15964E-01 1.16093E-01-3.86227E-01 2.03512E-04-1.73767E-02-3.05926E-02
 -1       905 1.39712E-01 1.39490E-01-4.66213E-01-2.87981E-05-2.14798E-02-3.96448E-02
 -1       906 1.06635E-01 1.02048E-01-3.47877E-01-6.40264E-04-1.21126E-02-5.01705E-02
 -1       907 2.87908E-01 3.01199E-01-9.82700E-01-2.56734E-03-1.81891E-02-1.16827E-01
 -1       908 3.25074E-01 3.34539E-01-1.10520E+00 1.16802E-05-2.63985E-02-1.21843E-01
 -1       909 4.04481E-01 4.10778E-01-1.37476E+00-3.59405E-03-3.62790E-02-1.25093E-01
 -1       910 5.05069E-01 5.25766E-01-1.72756E+00-2.30194E-03-3.56455E-02-7.08407E-02
 -1       911 5.35879E-01 5.50130E-01-1.81653E+00 7.11619E-04-3.92544E-02-3.19690E-02
 -1       912 5.64991E-01 5.84008E-01-1.93132E+00 9.26286E-04-4.27000E-02-6.59925E-02
 -1       913 5.74552E-02 5.92635E-02-1.93504E-01-2.07566E-03-1.92877E-02-3.94695E-02
 -1       914 5.24305E-02 5.65159E-02-1.84786E-01 3.19918E-03-5.17647E-03-4.97578E-02
 -1       915 3.87462E-02 4.18249E-02-1.33738E-01-1.66968E-04-9.81906E-03-3.56613E-02
 -1       916 5.35856E-01 7.66977E-01-2.33454E+00-4.74752E-03-4.51942E-02-1.55561E-03
 -1       917 4.59439E-01 7.17868E-01-2.13542E+00-3.16118E-03-2.70256E-02 1.39428E-01
 -1       918 4.26188E-01 5.34081E-01-1.67467E+00-3.53934E-03-1.83392E-02 6.25139E-03
 -1       919 7.57373E-02 7.89896E-02-2.60771E-01-1.38506E-03-1.44900E-02-5.86312E-02
 -1       920 7.39326E-02 7.17796E-02-2.45864E-01-1.64326E-03-1.37397E-02-4.52495E-02
 -1       921 3.34818E-01 5.40687E-01-1.58478E+00-5.53405E-03 2.58511E-02 8.22719E-02
 -1       922 1.49675E-01 1.53935E-01-5.06646E-01 1.78306E-03-1.67974E-02-6.99771E-02
 -1       923 1.24009E-01 1.40006E-01-4.39471E-01-3.81345E-03-2.15206E-02-7.41388E-02
 -1       924 1.17490E-01 1.19876E-01-3.97308E-01-5.79348E-04-1.75739E-02-6.26978E-02
 -1       925 4.26921E-01 4.49679E-01-1.46887E+00 2.97269E-04-3.18887E-02-9.59492E-02
 -1       926 4.65982E-01 4.71503E-01-1.56907E+00 2.70648E-03-4.30194E-02-6.36218E-02
 -1       927 2.15478E-01 2.19270E-01-7.24473E-01-2.74867E-03-2.38198E-02-7.43553E-02
 -1       928 1.77666E-01 1.80253E-01-6.02212E-01-6.38874E-05-1.58489E-02-9.33261E-02
 -1       929 1.72083E-01 1.69634E-01-5.76758E-01 2.61644E-04-2.19873E-02-7.24325E-02
 -1       930 4.93068E-01 5.11980E-01-1.68903E+00-1.53526E-03-3.95089E-02-1.02534E-01
 -1       931 2.95317E-01 2.99617E-01-9.90052E-01 4.12687E-03-2.38786E-02-9.22695E-02
 -1       932 2.40511E-01 2.48370E-01-8.18627E-01 6.39806E-04-2.58537E-02-9.90811E-02
 -1       933 2.40542E-01 2.50892E-01-8.18274E-01-3.10047E-03-2.45301E-02-8.28163E-02
 -1       934 4.20786E-01 4.60999E-01-1.48666E+00 5.02354E-03-7.64548E-03-1.12122E-01
 -1       935 3.20488E-01 3.08616E-01-1.06916E+00-1.18016E-02-2.22713E-02-1.00287E-01
 -1       936 4.35560E-01 4.66982E-01-1.52012E+00 2.43674E-03-3.52157E-02-1.23079E-01
 -1       937 3.69943E-01 3.77116E-01-1.24976E+00-5.87220E-03-3.35822E-02-9.50704E-02
 -1       938 3.15012E-01 3.10724E-01-1.05372E+00 1.65749E-03-2.93254E-02-9.51921E-02
 -1       939 3.07413E-01 3.37043E-01-1.08262E+00-3.16126E-03 1.19855E-03-7.80086E-02
 -1       940 5.65237E-01 6.09277E-01-1.97999E+00 1.81991E-03-4.66605E-02-1.07402E-01
 -1       941 8.92905E-03 8.34014E-03-2.65190E-02 1.72573E-04-2.89987E-03 4.62223E-03
 -1       942 2.96087E-03 1.94208E-03-6.88996E-03-4.67234E-05-1.15634E-03 1.47163E-03
 -1       943 6.06958E-01 7.08969E-01-2.25822E+00-2.79018E-04-5.07836E-02-1.03446E-01
 -1       944 5.19586E-01 5.90817E-01-1.90943E+00-4.60693E-03-4.00125E-02-1.03147E-01
 -1       945 5.37157E-01 5.90417E-01-1.91919E+00-4.28971E-03-4.92305E-02-1.15229E-01
 -1       946 2.31871E-01 2.38537E-01-7.90839E-01-1.60713E-03-2.67818E-02-1.09237E-01
 -1       947 6.59059E-01 9.21648E-01-2.81062E+00 2.46216E-03-6.77248E-02-9.26854E-02
 -1       948 5.94542E-01 7.53847E-01-2.36125E+00-1.67441E-03-4.17641E-02-7.42794E-02
 -1       949 1.77480E-01 1.89649E-01-6.25619E-01-2.63653E-05-8.92689E-03-8.09630E-02
 -1       950 4.15164E-01 4.20185E-01-1.39291E+00-7.16798E-04-3.66199E-02-5.96338E-02
 -1       951 4.32560E-01 4.37614E-01-1.45256E+00 1.62490E-03-3.24931E-02-1.47769E-02
 -1       952 2.37510E-01 2.39142E-01-8.04853E-01-9.99049E-04-2.35078E-02-1.03813E-01
 -1       953 1.69204E-01 1.69737E-01-5.65782E-01-1.21564E-03-2.42882E-02-9.17208E-02
 -1       954 1.62067E-01 1.57771E-01-5.37691E-01 1.45271E-03-2.25403E-03-6.81443E-02
 -1       955 1.76424E-01 1.87192E-01-6.06860E-01-4.83732E-03-1.95838E-02-9.15722E-02
 -1       956 1.22770E-01 1.23631E-01-4.12713E-01-3.12560E-03-1.99922E-02-8.00233E-02
 -1       957 1.23764E-01 1.27402E-01-4.09741E-01 1.36059E-03-5.66794E-03-6.77199E-02
 -1       958 7.51827E-01 8.02604E-01-2.63574E+00-2.95632E-03-3.79637E-02-5.71608E-02
 -1       959 7.72637E-01 7.78308E-01-2.64824E+00-6.28629E-03-5.08201E-02 1.59533E-02
 -1       960 7.99857E-01 8.61858E-01-2.78541E+00 1.70089E-02-3.90488E-02-5.31916E-02
 -1       961 6.92761E-02 7.20014E-02-2.33218E-01-7.52128E-04-1.23855E-02-2.60380E-02
 -1       962 8.13295E-02 7.81969E-02-2.64312E-01-1.62040E-04-1.61498E-02-1.09165E-02
 -1       963 9.43367E-02 9.25809E-02-3.09961E-01 3.36931E-04-1.51587E-02-3.00601E-02
 -1       964 1.26491E-01 1.30151E-01-4.33887E-01-7.07407E-04-1.58771E-02-7.98821E-02
 -1       965 8.24596E-02 8.46349E-02-2.81691E-01-2.58774E-03-1.34784E-02-6.54063E-02
 -1       966 9.07745E-02 8.80970E-02-2.89985E-01 1.62716E-03-7.28590E-03-5.65624E-02
 -1       967 8.25333E-02 9.68809E-02-2.98741E-01-4.21120E-03-1.65372E-02-6.65675E-02
 -1       968 4.80762E-02 5.25826E-02-1.70651E-01-1.57837E-03-1.09762E-02-5.31207E-02
 -1       969 5.50892E-02 5.88057E-02-1.85581E-01-1.49918E-06-7.94846E-03-4.90151E-02
 -1       970 7.36046E-01 7.55689E-01-2.47930E+00 7.15523E-03-2.83825E-02-1.18795E-02
 -1       971 3.83497E-02 4.48532E-02-1.41905E-01-1.99693E-03-1.01782E-02-4.93332E-02
 -1       972 3.12591E-02 3.08705E-02-1.04633E-01-2.79739E-03-4.96244E-03-3.67755E-02
 -1       973 2.25859E-02 2.79297E-02-8.47640E-02-2.15386E-03-3.51783E-03-3.64007E-02
 -1       974 5.65358E-03 1.08976E-02-3.06504E-02-1.55559E-03-4.32642E-03-2.63268E-02
 -1       975-2.60612E-03 3.20982E-03-2.46079E-03-6.64328E-04-2.36937E-03-1.39286E-02
 -1       976 1.22739E-01 1.26019E-01-4.14705E-01 7.54399E-04-1.66038E-02-1.01602E-02
 -1       977 3.97780E-03 1.16816E-03-8.25819E-03-8.53043E-04-3.19716E-03-1.65367E-02
 -1       978 7.28069E-01 1.16320E+00-3.44595E+00 1.42603E-02-8.97210E-02-2.98486E-01
 -1       979 4.77892E-01 1.34373E+00-3.63081E+00 5.43037E-02-1.28763E-01-3.28924E-01
 -1       980 5.03898E-01 1.20794E+00-3.33540E+00 1.06076E-03-1.13219E-01-1.29056E-01
 -1       981 7.13557E-01 1.34640E+00-3.76483E+00 1.02563E-01 4.54380E-02-6.35613E-01
 -1       982 3.25282E-01 1.54533E+00-3.80998E+00 1.21775E-01-1.93069E-01-3.90676E-01
 -1       983 1.74231E-01 1.78631E-01-5.84096E-01 1.04545E-03-2.22362E-02-4.44672E-02
 -1       984 1.86001E-01 1.85813E-01-6.17400E-01 5.01090E-04-2.27888E-02-1.51435E-02
 -1       985 2.09004E-01 2.03746E-01-6.88709E-01-2.21278E-03-2.50437E-02-4.32872E-02
 -1       986 5.95380E-01 6.04199E-01-2.01008E+00 1.95751E-03-3.46643E-02-2.25074E-02
 -1       987 5.57476E-01 5.63826E-01-1.86651E+00 4.65506E-03-2.33549E-02 2.27308E-02
 -1       988 6.09779E-01 5.95971E-01-2.02285E+00-1.86302E-03-3.31264E-02 4.61865E-02
 -1       989 6.94880E-01 1.05173E+00-3.16066E+00 3.93672E-03-7.96411E-02-1.62296E-01
 -1       990 7.81628E-01 9.51250E-01-2.99518E+00 5.28366E-03-5.65322E-02-1.38732E-01
 -1       991 2.35915E-01 2.42662E-01-7.98871E-01-9.24608E-04-2.52002E-02-5.13921E-02
 -1       992 2.57751E-01 2.54956E-01-8.53296E-01 2.37032E-04-2.58229E-02-1.94795E-02
 -1       993 2.81359E-01 2.83779E-01-9.42890E-01 3.21531E-04-2.88902E-02-5.24350E-02
 -1       994 3.23000E-01 3.31570E-01-1.08580E+00 1.58170E-03-2.93775E-02-6.00951E-02
 -1       995 3.39703E-01 3.42100E-01-1.13483E+00 3.20389E-04-3.13318E-02-2.10442E-02
 -1       996 3.66742E-01 3.60591E-01-1.21638E+00-3.41351E-03-3.29982E-02-5.70462E-02
 -1       997 4.41359E-01 8.98877E-01-2.51762E+00-1.01503E-02-4.79392E-02 1.31701E-01
 -1       998 5.56616E-01 1.01412E+00-2.91870E+00-2.35010E-03-6.64506E-02-3.65790E-02
 -1       999 2.85340E-01 1.00630E+00-2.65292E+00-2.04149E-02-4.18832E-02 2.64294E-01
 -1      1000 1.42403E-01 8.44261E-01-2.04474E+00-8.61163E-02-5.20761E-02 3.70290E-01
 -1      1001 3.39753E-01 7.41799E-01-2.04241E+00-2.70659E-03-1.43486E-03 2.73658E-01
 -1      1002-4.07403E-03 3.33055E-03-1.77197E-03-6.11940E-04-1.70400E-03-1.41408E-02
 -1      1003-5.14027E-03-9.55299E-04 6.47380E-03 9.39126E-05-9.90475E-04-9.03239E-03
 -1      1004 1.63797E-02 1.95748E-02-6.27094E-02-1.02255E-03-6.67105E-03-3.01842E-02
 -1      1005 1.98429E-01 1.69724E+00-4.02111E+00 5.75566E-02-1.34397E-01-1.24782E-01
 -1      1006 1.45167E-01 1.46311E+00-3.21632E+00-6.51782E-02-1.05359E-02 1.85681E-01
 -1      1007 2.47489E-01 1.48935E+00-3.62133E+00-3.76300E-02-1.11871E-01-1.02371E-02
 -1      1008 2.30873E-02 3.07149E-02-9.19771E-02-2.17547E-03-7.93116E-03-3.99867E-02
 -1      1009 3.45811E-01 3.49102E-01-1.16680E+00-1.70943E-03-3.40229E-02-1.16559E-01
 -1      1010 2.40446E-01 2.72990E-01-8.48634E-01-5.50547E-03-1.80168E-02-9.86459E-02
 -1      1011 3.66244E-01 4.14970E-01-1.33681E+00-5.52831E-04-2.21779E-02-6.01272E-02
 -1      1012 4.88861E-01 5.99630E-01-1.88825E+00 2.55033E-03-3.30646E-02-5.00213E-02
 -1      1013 6.30707E-01 6.51101E-01-2.15769E+00 6.10262E-04-3.39680E-02-6.57846E-02
 -1      1014 6.50370E-01 6.60294E-01-2.20081E+00-1.82681E-03-3.86574E-02-1.91291E-02
 -1      1015 6.85117E-01 7.32595E-01-2.39235E+00 2.28165E-03-4.69039E-02-5.66015E-02
 -1      1016 2.85566E-02 2.46076E-02-8.96338E-02-4.96490E-04-9.73544E-03-2.54783E-02
 -1      1017 3.44770E-01 1.19630E+00-3.12344E+00-8.16975E-03-8.67196E-02 1.19084E-01
 -1      1018 2.72858E-03 1.50733E-03-6.35138E-03 4.02960E-04-1.75329E-03-2.69277E-03
 -1      1019 1.19774E-03-3.42041E-04-8.10825E-04 1.92818E-04-3.32915E-04 1.34910E-03
 -1      1020 8.22522E-01 1.02444E+00-3.21639E+00 1.52928E-02-5.47958E-02-2.11717E-01
 -1      1021 9.86949E-03 1.00780E-02-3.53825E-02-1.18437E-04-2.45755E-03-2.30777E-02
 -1      1022 3.73945E-02 3.41665E-02-1.17697E-01-8.48114E-04-9.85832E-03-9.75287E-03
 -1      1023 1.91957E-02 1.98882E-02-6.29831E-02-2.99074E-05-6.74490E-03-1.21806E-02
 -1      1024 2.61648E-02 2.60302E-02-8.56904E-02 9.34471E-04-7.21657E-03-3.25086E-03
 -1      1025 7.98497E-01 7.93272E-01-2.75655E+00 1.87399E-02 1.43126E-02-8.96512E-02
 -1      1026 9.15025E-03 7.06723E-03-2.56221E-02-4.09346E-04-4.58124E-03-9.75587E-03
 -1      1027 8.83757E-03 6.76828E-03-2.41217E-02 2.35479E-04-4.04015E-03-1.27018E-03
 -1      1028 1.64953E-02 1.47893E-02-5.05267E-02-5.91637E-05-5.87142E-03-3.53790E-03
 -1      1029 1.71865E-02 1.35148E-02-4.93090E-02-4.11589E-04-2.96178E-03 5.35184E-03
 -1      1030 2.46869E-02 2.25433E-02-7.73243E-02 1.50402E-03-5.59534E-03 4.65309E-03
 -1      1031 8.56401E-02 8.48698E-02-2.86622E-01 5.47570E-04-4.33869E-03 1.37031E-02
 -1      1032 1.09931E-01 1.04068E-01-3.52360E-01-1.33214E-03-1.25456E-02 1.30531E-02
 -1      1033 8.23973E-02 7.71980E-02-2.63856E-01 3.78536E-04-9.28676E-03 1.09424E-02
 -1      1034 1.70028E-01 1.64168E-01-5.56300E-01 8.40656E-04-1.36642E-02 2.03623E-02
 -1      1035 1.36758E-01 1.32693E-01-4.45827E-01-5.44901E-04-1.37962E-02 1.57526E-02
 -1      1036 2.30260E-01 2.32822E-01-7.72393E-01-6.33616E-04-1.91051E-02 2.25598E-02
 -1      1037 1.98056E-01 1.93951E-01-6.51853E-01 1.13559E-03-1.57639E-02 2.03202E-02
 -1      1038 6.09394E-02 5.86743E-02-1.97414E-01-1.83202E-04-1.28112E-02-5.34377E-03
 -1      1039 4.78900E-02 4.31344E-02-1.49874E-01 4.70886E-04-7.42663E-03 3.83308E-03
 -1      1040 3.19777E-01 3.13451E-01-1.05657E+00 1.19797E-03-1.88452E-02 2.70992E-02
 -1      1041 2.73476E-01 2.67443E-01-8.97972E-01-4.74373E-04-1.83773E-02 2.19296E-02
 -1      1042 3.95408E-01 4.06081E-01-1.34020E+00 1.94125E-04-2.35101E-02 3.09898E-02
 -1      1043 3.55867E-01 3.53247E-01-1.18162E+00 2.13668E-03-2.02485E-02 2.58264E-02
 -1      1044 6.23668E-02 5.78899E-02-1.96584E-01 1.64114E-03-1.03350E-02 1.20697E-02
 -1      1045 5.02678E-01 4.90104E-01-1.66677E+00-1.45133E-03-3.31647E-02 2.67853E-02
 -1      1046 4.54570E-01 4.56007E-01-1.50239E+00 3.07878E-03-1.27028E-02 4.50504E-02
 -1      1047 4.93672E-01 4.93183E-01-1.65059E+00-7.97878E-04-3.41699E-02-1.65989E-02
 -1      1048 1.01727E-01 1.00899E-01-3.37138E-01-4.30064E-04-1.63899E-02-8.27623E-03
 -1      1049 1.55197E-01 1.52078E-01-5.11878E-01-6.55951E-04-1.76920E-02-1.04646E-02
 -1      1050 2.19530E-01 2.16861E-01-7.27175E-01-7.67805E-04-2.31431E-02-1.56353E-02
 -1      1051 2.98636E-01 2.95158E-01-9.90956E-01-2.01821E-03-2.52631E-02-1.55930E-02
 -1      1052 3.84796E-01 3.83624E-01-1.28292E+00-1.08559E-03-2.95207E-02-2.05931E-02
 -1      1053-6.79802E-05 1.06088E-03-4.20912E-03-1.10280E-04-1.97861E-03-6.76523E-03
 -1      1054 4.93167E-02 4.78299E-02-1.55895E-01 4.23898E-04-6.14813E-03 1.31561E-02
 -1      1055 7.31291E-01 8.54077E-01-2.72715E+00 8.64687E-03-5.79127E-02-9.65542E-02
 -1      1056 6.94120E-01 7.93729E-01-2.53240E+00-3.87740E-03-5.89120E-02-8.89336E-02
 -1      1057 6.35026E-01 6.90394E-01-2.25050E+00 3.63382E-04-5.00942E-02-8.87850E-02
 -1      1058 3.57440E-02 3.48698E-02-1.16035E-01-3.37021E-05-6.68031E-03 1.01547E-02
 -1      1059 8.61758E-01 9.10209E-01-2.96915E+00 3.04295E-02-2.67710E-02-7.79699E-02
 -1      1060 8.77428E-01 9.74805E-01-3.15939E+00 9.41579E-03 1.46931E-02-1.66757E-01
 -1      1061 8.26143E-01 1.19320E+00-3.61754E+00 3.91856E-02-5.15691E-02-5.03220E-01
 -1      1062 9.41059E-01 1.05838E+00-3.43632E+00 2.26652E-02-7.69112E-03-2.55185E-01
 -1      1063 9.31095E-01 1.22610E+00-3.71792E+00 2.90472E-02-2.67172E-02-1.77059E-01
 -1      1064 6.39178E-01 6.28628E-01-2.13336E+00-1.14847E-02-2.98925E-02 1.36999E-02
 -1      1065 6.72294E-01 8.37022E-01-2.61229E+00 1.21659E-03-5.43242E-02-1.04079E-01
 -1      1066 4.94077E-02 4.64839E-02-1.59814E-01 9.88316E-05-1.12645E-02-2.20914E-02
 -1      1067 3.71617E-01 3.08671E-01-1.97336E+00 2.14453E-01 3.75921E-01-5.09242E-01
 -1      1068 9.95587E-04-1.30840E-04-9.59128E-04-1.46349E-04-1.37990E-03 2.57704E-04
 -1      1069 3.74613E-04-2.13014E-04-2.89666E-05 2.64179E-05-3.48115E-04 7.42236E-04
 -1      1070 8.66193E-04-2.35032E-04-5.81465E-04 3.99865E-04 1.03825E-04 1.37658E-03
 -1      1071-2.94348E-03-1.13401E-03 4.78045E-03-1.96511E-04-3.06107E-04-5.60115E-03
 -1      1072-1.75437E-03 6.74253E-04 3.17363E-03-4.34804E-04-4.82740E-04-5.47181E-03
 -1      1073-7.30934E-03 1.29061E-03 3.41525E-03 1.56374E-04-5.05797E-04-6.65398E-03
 -1      1074 1.35682E-01 4.85445E-01-1.21578E+00-6.38358E-03 1.42076E-01 2.79773E-01
 -1      1075 2.12069E-01 5.37233E-01-1.47132E+00-2.96894E-02 9.55780E-03 2.40132E-01
 -1      1076 4.62637E-02 6.24084E-01-1.63108E+00-6.79936E-02-1.89179E-02 2.30530E-01
 -1      1077 6.46472E-01 1.05423E+00-3.33122E+00 1.05714E-01 2.03308E-01-4.11384E-01
 -1      1078 5.49360E-01 8.87678E-01-2.84219E+00 3.71327E-02 2.09512E-01-4.51392E-01
 -1      1079 3.94985E-01 1.09433E+00-3.05455E+00 7.51135E-02 8.53783E-02-5.58043E-01
 -1      1080 7.34597E-01 6.79508E-01-2.59982E+00 1.56713E-02 9.79071E-02-5.20925E-02
 -1      1081 6.22660E-01 7.38916E-01-2.61010E+00 4.28446E-02 1.47160E-01-1.25825E-01
 -1      1082 8.49524E-01 1.26043E+00-3.57935E+00 5.22037E-02 2.33377E-02-5.49205E-01
 -1      1083 7.46953E-01 7.67317E-01-2.69689E+00 7.03844E-02 5.13909E-02-2.88849E-01
 -1      1084 7.92826E-01 1.28454E+00-3.66904E+00 2.01577E-02-1.41437E-01-4.26083E-01
 -1      1085 6.60938E-01 7.50693E-01-2.66692E+00 4.37936E-02 6.97110E-02-1.16787E-01
 -1      1086 6.93409E-01 5.82819E-01-2.30264E+00 2.50695E-02 2.82826E-02-1.55364E-01
 -1      1087 9.99336E-01 1.12194E+00-3.37256E+00-1.21228E-02-2.99093E-02-1.70199E-01
 -1      1088 6.30591E-01 5.54022E-01-2.09230E+00 1.10459E-02-3.71851E-02-1.15854E-01
 -1      1089 6.19286E-01 6.95094E-01-2.41989E+00 7.76534E-03-1.55725E-02-1.07091E-01
 -1      1090 9.32462E-01 9.75761E-01-3.03607E+00 3.17881E-02 1.78670E-02-1.22082E-01
 -1      1091 5.80726E-01 5.13656E-01-1.85431E+00 7.25053E-03-9.78086E-03-6.55748E-02
 -1      1092 5.80827E-01 4.94492E-01-1.89320E+00 8.12960E-03-4.63887E-02-7.50092E-02
 -1      1093 6.66216E-01 6.75772E-01-2.32022E+00 2.84048E-02-6.51526E-02-7.90110E-02
 -1      1094 8.48654E-01 8.71693E-01-2.84187E+00 2.77702E-02-1.87168E-02-4.34997E-02
 -1      1095 8.57009E-01 9.67395E-01-2.97791E+00 2.06183E-02-1.71128E-03-1.00822E-01
 -1      1096 5.55708E-01 5.14505E-01-1.89979E+00 2.39949E-02-4.11812E-03 5.47871E-02
 -1      1097 5.65068E-01 6.92486E-01-2.25365E+00 8.60581E-03-6.69152E-02-8.55507E-03
 -1      1098 6.30386E-01 7.04721E-01-2.27740E+00 1.00470E-02 3.32841E-02-1.67576E-02
 -1      1099 7.84706E-01 8.34645E-01-2.63095E+00 1.09327E-02-5.42348E-02-2.84192E-02
 -1      1100 7.94912E-01 8.37614E-01-2.72384E+00 3.37342E-02 2.88181E-02-4.05167E-02
 -1      1101 5.07511E-01 4.16892E-01-1.69721E+00-1.63497E-02-6.91783E-03 4.59783E-02
 -1      1102 5.38490E-01 5.82139E-01-2.03692E+00 5.73810E-02-1.19153E-01 4.46921E-02
 -1      1103 7.82177E-01 7.49612E-01-2.37244E+00 2.82157E-02-2.98587E-02-1.16938E-02
 -1      1104 4.76655E-01 4.23751E-01-1.54721E+00 2.36844E-02 3.09685E-02 4.38327E-02
 -1      1105 4.42362E-01 5.04406E-01-1.79329E+00 2.83491E-02 2.36748E-02 5.61460E-02
 -1      1106 6.86603E-01 6.84064E-01-2.19541E+00-1.08483E-02-4.07410E-02-3.64368E-02
 -1      1107 4.21719E-01 3.64446E-01-1.42361E+00 1.49576E-02-2.78735E-03 3.98504E-02
 -1      1108 4.34804E-01 4.94128E-01-1.66811E+00 2.78383E-02-5.81348E-02 5.63655E-02
 -1      1109 6.43140E-01 6.11951E-01-1.95406E+00 1.56666E-02-3.37349E-02 1.70041E-02
 -1      1110 3.97882E-01 3.52805E-01-1.35855E+00 1.64575E-02-1.43913E-02 4.95838E-02
 -1      1111 4.11703E-01 4.43427E-01-1.58367E+00 4.26582E-02-6.58620E-02 3.73588E-02
 -1      1112 6.13529E-01 5.77135E-01-1.83013E+00 1.64599E-02-2.99615E-02 1.73911E-02
 -1      1113 3.42892E-01 2.91509E-01-1.16461E+00 1.13416E-02-1.24535E-02 4.85761E-02
 -1      1114 3.46247E-01 4.15354E-01-1.41062E+00 1.95354E-02-6.87277E-02 5.35507E-02
 -1      1115 5.26098E-01 5.16166E-01-1.66073E+00 5.92696E-03-3.69463E-02 3.44945E-03
 -1      1116 3.25457E-01 2.68360E-01-1.05861E+00 1.25399E-02-2.05993E-02 1.97810E-02
 -1      1117 3.36937E-01 3.15735E-01-1.22492E+00 2.21278E-02-4.68388E-02 4.55470E-02
 -1      1118 5.10122E-01 4.62041E-01-1.48467E+00 5.79122E-03-2.87598E-02 2.24124E-02
 -1      1119 2.79933E-01 2.58054E-01-9.76895E-01 8.26410E-03-4.23029E-03 4.13180E-02
 -1      1120 2.84300E-01 3.53566E-01-1.18388E+00 1.93696E-02-5.70543E-02 1.74427E-02
 -1      1121 4.32033E-01 4.22674E-01-1.33775E+00-2.72198E-03-2.35520E-02 2.64234E-02
 -1      1122 2.49690E-01 2.15925E-01-8.48487E-01 1.23447E-02-1.60048E-02 3.17555E-02
 -1      1123 2.64691E-01 2.82957E-01-1.01025E+00 2.20574E-02-4.19472E-02 4.09080E-02
 -1      1124 3.82942E-01 3.73947E-01-1.19556E+00 6.05509E-03-3.06874E-02 2.03485E-02
 -1      1125 2.17038E-01 1.94388E-01-7.52253E-01 7.32923E-03-5.14111E-03 3.71827E-02
 -1      1126 2.24632E-01 2.69007E-01-9.16401E-01 1.76102E-02-4.08801E-02 3.24391E-02
 -1      1127 3.42336E-01 3.28481E-01-1.05266E+00 9.83468E-04-2.83057E-02 1.98435E-02
 -1      1128 1.93279E-01 1.60466E-01-6.40100E-01 8.99122E-03-1.97898E-02 2.09185E-02
 -1      1129 2.06005E-01 2.01924E-01-7.55397E-01 1.51262E-02-3.41196E-02 3.58022E-02
 -1      1130 3.12631E-01 2.85618E-01-9.16820E-01 9.57903E-03-2.36868E-02 1.77439E-02
 -1      1131 1.61384E-01 1.47192E-01-5.60886E-01 3.37684E-03-8.88289E-03 3.00226E-02
 -1      1132 1.66874E-01 2.05365E-01-6.91298E-01 1.21790E-02-4.08466E-02 2.04335E-02
 -1      1133 2.59376E-01 2.47207E-01-7.94358E-01-1.74898E-03-2.34459E-02 1.77505E-02
 -1      1134 1.36946E-01 1.18237E-01-4.65236E-01 6.23816E-03-1.41760E-02 2.38628E-02
 -1      1135 1.48759E-01 1.57395E-01-5.63463E-01 1.32699E-02-2.93859E-02 3.09338E-02
 -1      1136 2.18466E-01 2.09851E-01-6.75936E-01 3.40644E-03-2.29685E-02 1.70822E-02
 -1      1137 1.13293E-01 1.01743E-01-3.93666E-01 3.09083E-03-8.10436E-03 2.49944E-02
 -1      1138 1.20962E-01 1.42788E-01-4.88073E-01 1.02156E-02-2.72498E-02 2.42940E-02
 -1      1139 1.86059E-01 1.76278E-01-5.69321E-01 4.70436E-04-1.99484E-02 1.63244E-02
 -1      1140 9.51386E-02 7.98152E-02-3.15323E-01 3.90498E-03-1.56401E-02 1.66085E-02
 -1      1141 1.04990E-01 1.01026E-01-3.80046E-01 8.20677E-03-2.23615E-02 2.47492E-02
 -1      1142 1.61885E-01 1.45787E-01-4.70927E-01 4.72866E-03-1.62986E-02 1.49322E-02
 -1      1143 7.40096E-02 7.32680E-02-2.81187E-01 7.11396E-03-1.95331E-02 1.79454E-02
 -1      1144 8.16497E-02 9.15733E-02-3.18841E-01 7.60477E-03-2.94095E-02 1.18059E-02
 -1      1145 1.25599E-01 1.16072E-01-3.83480E-01-3.19115E-04-1.60970E-02 1.34375E-02
 -1      1146 6.17799E-02 6.20612E-02-2.04737E-01-3.19149E-03-5.99789E-03 8.93994E-03
 -1      1147 5.68322E-02 4.70363E-02-1.84165E-01-1.88997E-04-1.94530E-02 1.43869E-02
 -1      1148 1.00820E-01 9.31737E-02-3.07947E-01-4.47890E-03-4.92098E-03 1.82319E-02
 -1      1149 3.82526E-02 3.82325E-02-1.43509E-01 1.45712E-03-1.53671E-02 1.49788E-02
 -1      1150 5.23419E-02 5.64840E-02-1.80921E-01 5.69246E-03-2.00089E-02 1.21107E-02
 -1      1151 6.32032E-02 6.00584E-02-2.11253E-01-5.11576E-04-8.56011E-03 1.36804E-02
 -1      1152 7.96458E-02 7.86180E-02-2.71374E-01 6.02413E-03 6.88214E-04 1.99342E-02
 -1      1153 7.25518E-02 6.66682E-02-2.26173E-01 1.15464E-03-8.92735E-03 9.96214E-03
 -1      1154 3.03766E-02 2.78656E-02-1.06782E-01-5.45308E-04-9.05316E-03 6.51736E-03
 -1      1155 3.53011E-02 2.44909E-02-1.03410E-01-4.87499E-04-1.25153E-02 8.66655E-03
 -1      1156 5.47407E-02 5.17550E-02-1.61765E-01-1.10147E-03-7.08602E-03 1.40547E-02
 -1      1157 2.37356E-02 2.41004E-02-8.42929E-02 3.70432E-04-6.08486E-03 9.14896E-03
 -1      1158 2.79045E-02 2.12544E-02-8.44636E-02 7.57078E-04-1.07169E-02 5.20520E-03
 -1      1159 4.17969E-02 3.99080E-02-1.25094E-01 7.88670E-04-7.45475E-03 1.64102E-02
 -1      1160 1.11654E-02 9.09478E-03-3.64093E-02 1.87040E-04-5.85717E-03 5.56895E-03
 -1      1161 1.40036E-02 1.45492E-02-5.15635E-02 1.62902E-03-8.39442E-03 7.05499E-03
 -1      1162 2.14780E-02 1.82133E-02-6.07115E-02 1.46601E-03-4.00037E-03 4.89961E-03
 -1      1163 1.87068E-02 1.69783E-02-5.85137E-02 1.64235E-03-8.34791E-03 5.00153E-03
 -1      1164 2.91733E-02 2.84099E-02-9.11811E-02 1.50684E-03-6.75711E-03 6.84369E-03
 -1      1165 6.04054E-03 4.80469E-03-1.77694E-02-2.65392E-04-4.55603E-03 2.01547E-03
 -1      1166 7.03890E-03 6.84044E-03-2.50304E-02 1.21674E-03-5.79734E-03 5.57663E-03
 -1      1167 1.23599E-02 1.04743E-02-3.38828E-02-5.54128E-04-1.75672E-03 3.81830E-03
 -1      1168 1.58082E-03 1.39558E-03-5.07445E-03-1.48067E-04-1.85778E-03 1.07098E-03
 -1      1169 3.05414E-03 2.12879E-03-9.33805E-03 7.34200E-04-3.53950E-03 2.09221E-03
 -1      1170 6.50066E-03 4.08201E-03-1.39419E-02 4.59044E-05-2.21624E-03 2.65973E-03
 -1      1171 1.95179E-03 6.12501E-04-2.70531E-03-1.14334E-04-6.78982E-04 1.24130E-03
 -1      1172 2.61314E-01 5.52583E-01-1.56806E+00-2.21647E-02 4.29597E-02 2.08334E-01
 -1      1173 2.73104E-01 5.41103E-01-1.52587E+00-1.47806E-02-7.39938E-03 1.67543E-01
 -1      1174 2.37441E-01 7.84805E-01-2.08640E+00-2.43555E-02 4.15898E-02 4.02537E-01
 -1      1175 2.66928E-01 4.19173E-01-1.25740E+00-1.92078E-02 4.93657E-02 6.89983E-02
 -1      1176 2.71960E-01 3.86699E-01-1.17017E+00-3.50297E-03-2.62802E-02 3.27859E-02
 -1      1177 3.53200E-01 6.28689E-01-1.78574E+00-1.90393E-02-1.89892E-02 1.67411E-01
 -1      1178 2.88334E-01 3.26432E-01-1.05428E+00-7.65622E-03 3.11670E-02-3.38015E-02
 -1      1179 2.64366E-01 3.03163E-01-9.68930E-01-7.97968E-04-1.57489E-02-4.51278E-02
 -1      1180 3.20878E-01 3.68091E-01-1.20474E+00 1.72694E-03-2.19636E-03-1.79886E-02
 -1      1181 4.06939E-01 5.34176E-01-1.63043E+00-1.48737E-04 3.15894E-02 1.44335E-02
 -1      1182 4.06595E-01 4.66415E-01-1.46519E+00-1.51795E-02-4.05856E-02-3.56820E-02
 -1      1183 2.35661E-01 2.60226E-01-8.36307E-01-1.75201E-03 2.74020E-02-4.82021E-02
 -1      1184 2.22828E-01 2.45603E-01-7.96285E-01 2.67162E-03-1.47144E-02-4.88365E-02
 -1      1185 3.37773E-01 3.58348E-01-1.14148E+00-1.11456E-02-2.39861E-02-8.72298E-02
 -1      1186 1.89265E-01 2.11400E-01-6.75788E-01-1.14423E-02 1.41133E-02-5.61833E-02
 -1      1187 1.74094E-01 1.90467E-01-6.20552E-01 9.35605E-04-8.81431E-03-5.42549E-02
 -1      1188 2.27404E-01 2.31425E-01-7.68961E-01 4.37136E-03-6.02263E-03-6.68382E-02
 -1      1189 3.09293E-01 3.29610E-01-1.08553E+00-1.07948E-02-6.16515E-03-9.49315E-02
 -1      1190 2.81969E-01 2.92361E-01-9.54553E-01-6.37357E-03-4.65125E-03-9.77565E-02
 -1      1191 1.37831E-01 1.56881E-01-5.00777E-01-5.76631E-03 9.28218E-03-4.59669E-02
 -1      1192 1.32061E-01 1.42738E-01-4.70260E-01 1.14635E-04-8.18909E-03-3.58419E-02
 -1      1193 2.05898E-01 2.20862E-01-7.03297E-01-8.04543E-03-2.94822E-02-9.19475E-02
 -1      1194 1.24188E-01 1.26062E-01-4.16000E-01-5.82744E-04 8.15081E-04-3.88859E-02
 -1      1195 1.18343E-01 1.14212E-01-3.91098E-01 2.13000E-03-2.19517E-02-4.40951E-02
 -1      1196 1.66987E-01 1.68850E-01-5.56546E-01-3.96553E-03-1.30631E-02-7.34769E-02
 -1      1197 9.98902E-02 1.06350E-01-3.27318E-01 7.80829E-04 1.77294E-02-4.02642E-02
 -1      1198 8.86416E-02 8.31484E-02-2.83307E-01 8.72797E-03-2.61803E-02-4.21008E-02
 -1      1199 1.18787E-01 1.13826E-01-3.88665E-01 1.01893E-03-1.37738E-02-5.70674E-02
 -1      1200 1.63783E-01 1.74724E-01-5.63454E-01-2.30934E-03-1.48550E-02-8.27583E-02
 -1      1201 1.42609E-01 1.40325E-01-4.63282E-01 1.64469E-03-9.01311E-03-7.83385E-02
 -1      1202 7.14302E-02 7.68474E-02-2.33296E-01-4.70942E-04 8.00344E-03-3.41918E-02
 -1      1203 6.56104E-02 5.48548E-02-1.98537E-01 9.80550E-04-1.26015E-02-3.72131E-02
 -1      1204 8.72217E-02 7.80822E-02-2.78044E-01 3.40735E-04-1.11995E-02-4.86046E-02
 -1      1205 1.19949E-01 1.28599E-01-4.13140E-01-5.12972E-03-1.33582E-02-7.45576E-02
 -1      1206 1.04854E-01 9.65756E-02-3.31794E-01 4.09896E-04-1.03235E-02-6.64067E-02
 -1      1207 4.95471E-02 4.97260E-02-1.55161E-01-9.70660E-04 6.53751E-03-3.25836E-02
 -1      1208 3.83655E-02 3.83431E-02-1.26333E-01 5.90485E-04-4.15446E-03-2.68719E-02
 -1      1209 6.23019E-02 5.45411E-02-1.94930E-01 1.49179E-03-5.80706E-03-4.37388E-02
 -1      1210 8.50103E-02 9.09473E-02-2.90160E-01-5.04464E-03-9.45946E-03-6.34955E-02
 -1      1211 6.84602E-02 6.84757E-02-2.27148E-01-1.40670E-04-9.11020E-03-5.56674E-02
 -1      1212 2.73709E-02 2.74640E-02-9.01436E-02-1.21986E-03 3.15343E-03-2.17835E-02
 -1      1213 2.29040E-02 2.05310E-02-7.16568E-02 2.24532E-04-3.40689E-03-2.11165E-02
 -1      1214 3.40954E-02 3.79508E-02-1.21325E-01 2.39196E-04-3.38464E-03-3.17932E-02
 -1      1215 5.00420E-02 5.30027E-02-1.75323E-01-1.70287E-03-2.49774E-03-5.07005E-02
 -1      1216 3.69675E-02 4.00839E-02-1.29096E-01-2.98692E-03-9.24529E-03-4.58668E-02
 -1      1217 1.35262E-02 1.12455E-02-3.88199E-02-1.09289E-03 1.70451E-03-1.46057E-02
 -1      1218 8.30088E-03 8.66933E-03-2.90245E-02-2.68656E-04-5.48790E-04-1.24881E-02
 -1      1219 1.75413E-02 1.98062E-02-6.33531E-02 8.99741E-04-1.02030E-03-2.24696E-02
 -1      1220 2.50275E-02 2.99672E-02-9.52085E-02-1.45426E-03-2.12029E-03-3.53144E-02
 -1      1221 1.69034E-02 1.58117E-02-5.71015E-02-2.24135E-03-7.82749E-03-3.12970E-02
 -1      1222 5.64184E-03 6.65452E-03-1.46084E-02 4.66435E-04-1.44307E-03-7.95085E-03
 -1      1223 3.47769E-03-7.41723E-04-2.19392E-03-3.68841E-04 1.51607E-04-7.44130E-03
 -1      1224 5.25447E-03 9.84059E-03-2.76722E-02 4.25750E-04-5.65751E-03-2.03378E-02
 -1      1225-6.18053E-04 6.44847E-04-1.70661E-03 2.23877E-04-1.67637E-03-6.40777E-03
 -1      1226-5.75082E-04 2.83974E-03-5.67436E-03-2.86515E-03 7.47311E-04-1.46119E-02
 -1      1227-3.33134E-03-2.27552E-03 4.68874E-03-3.58795E-04-1.20505E-03-1.16078E-02
 -1      1228 1.24866E-01 9.62982E-01-3.68934E+00 2.48527E-02-3.52947E-01-2.91831E-01
 -1      1229 2.10171E-01 1.18579E+00-3.31145E+00 7.82433E-02-1.45948E-01-4.36905E-01
 -1      1230 4.68146E-01 1.44697E+00-3.64473E+00 1.35062E-01-5.54751E-02-4.84187E-01
 -1      1231 8.40068E-02 1.45441E+00-3.83772E+00 5.09736E-02-2.60507E-01-1.79614E-01
 -1      1232 8.31443E-02 1.02430E+00-3.94363E+00 2.21940E-01-1.27068E-01-6.86401E-02
 -1      1233 2.21590E-01 1.81922E+00-3.97153E+00 5.64522E-02-1.01185E-01-2.29501E-01
 -1      1234 4.68721E-02 1.22785E+00-3.05281E+00-8.30146E-02-3.73511E-02 1.79917E-01
 -1      1235 8.33181E-02 1.33924E+00-3.60423E+00-8.42917E-02-2.07494E-01 1.26280E-01
 -1      1236 1.62982E-01 1.43490E+00-3.80980E+00-6.55824E-02-2.03707E-01 2.58745E-02
 -1      1237 2.46092E-01 1.54983E+00-3.83433E+00-2.25094E-02-1.72796E-01-6.93047E-02
 -1      1238 1.75881E-01 1.55921E+00-3.46372E+00-4.37588E-02-5.18217E-02 1.08285E-01
 -1      1239 4.06725E-02 1.01863E+00-2.38684E+00-1.17386E-01 2.30707E-03 2.57510E-01
 -1      1240 8.50192E-02 1.08017E+00-2.62058E+00-7.50454E-02 5.51162E-02 3.04467E-01
 -1      1241 4.31650E-04 1.20912E-03-2.42801E-03-2.39820E-04-9.00463E-04-2.36729E-03
 -1      1242 1.51098E-03 2.69662E-04-2.62933E-03 1.37329E-04-5.54318E-05-4.46772E-04
 -1      1243 2.84918E-03 1.34178E-03-6.48284E-03-2.11197E-04-1.61824E-03-5.55342E-04
 -1      1244 1.46869E-03 7.78936E-04-2.31127E-03-3.13300E-05-4.12243E-04 6.57626E-04
 -1      1245-4.76166E-04 4.32114E-04-1.63951E-03 4.36785E-04 9.51756E-05-3.64392E-03
 -1      1246-3.22298E-03 2.75137E-03-2.16307E-03-1.50215E-03-3.42569E-04-6.25847E-03
 -1      1247 1.68264E-03 1.63037E-03-5.56235E-03 3.83832E-04-1.58059E-03-5.08906E-03
 -1      1248-2.45063E-03 2.19649E-03-2.23744E-03-5.67999E-04-4.23198E-04-8.69594E-03
 -1      1249-5.75581E-03 2.95853E-03-7.35575E-05-4.49846E-04 1.62645E-05-1.02478E-02
 -1      1250-1.79212E-04 2.40967E-03-5.41285E-03-1.16910E-03-1.79001E-03-9.65731E-03
 -1      1251-8.11046E-03 1.45651E-03 4.18640E-03-1.90190E-03-3.85342E-04-8.44291E-03
 -1      1252-2.66012E-03 3.35313E-03-4.16171E-03-7.91311E-05-2.38845E-03-1.33931E-02
 -1      1253-6.98808E-03 2.98891E-03 2.26151E-03-2.11116E-03 6.10281E-04-1.12182E-02
 -1      1254-5.53398E-03-7.13587E-04 3.48444E-03 8.20045E-04-1.43567E-03-9.67769E-03
 -1      1255 7.90926E-03 1.19741E-02-3.41186E-02 9.65200E-04-4.20074E-03-1.95630E-02
 -1      1256 1.89305E-03 4.07069E-03-1.26928E-02-1.54382E-03-1.74648E-03-1.58261E-02
 -1      1257 5.88015E-03 7.21652E-03-2.19918E-02-7.39488E-04-4.68533E-03-1.53619E-02
 -1      1258 1.45938E-02 1.54777E-02-5.17301E-02-1.64385E-03-4.13452E-03-2.45737E-02
 -1      1259 1.06925E-02 1.24276E-02-4.04075E-02-3.20215E-03-7.63275E-03-2.50791E-02
 -1      1260 4.63963E-03 4.52876E-03-1.62795E-02 1.50513E-03-3.21088E-03-1.21166E-02
 -1      1261 1.01043E-02 1.01414E-02-3.40256E-02-1.72707E-03-5.09337E-03-1.38540E-02
 -1      1262 2.43529E-02 2.18452E-02-8.06784E-02 1.78824E-03-7.88241E-03-2.89273E-02
 -1      1263 1.98970E-02 1.88435E-02-6.56403E-02-1.89092E-03-9.79984E-03-2.20059E-02
 -1      1264 2.37495E-02 2.44145E-02-7.88934E-02-1.81331E-03-4.45691E-03-1.84488E-02
 -1      1265 1.57000E-02 1.53670E-02-5.11104E-02 2.75649E-03-6.11633E-03-1.45860E-02
 -1      1266 1.45440E-02 1.17730E-02-4.19537E-02 9.21277E-05-5.48166E-03-1.10651E-02
 -1      1267-1.69771E-03 5.21248E-03-9.06334E-03 1.24209E-04-3.47620E-03-1.77126E-02
 -1      1268 3.55588E-03 8.77474E-03-2.49646E-02-2.08917E-03-2.95865E-03-2.30219E-02
 -1      1269 9.68051E-04 6.52300E-03-1.57030E-02-6.48148E-04-5.64311E-03-2.02131E-02
 -1      1270-5.40581E-04 4.20313E-03-9.48299E-03-1.32108E-04-2.60156E-03-1.81457E-02
 -1      1271 9.90890E-03 1.36336E-02-4.55525E-02 2.81200E-03-5.06154E-03-2.87422E-02
 -1      1272-3.35476E-03 3.16559E-03-4.30784E-04-2.00008E-03 4.89196E-06-1.43416E-02
 -1      1273 3.85138E-03 3.86822E-03-1.46329E-02-4.77659E-04-4.58428E-03-8.16515E-03
 -1      1274 1.27563E-01 1.26526E-01-4.19877E-01-1.40793E-04-1.88390E-02-3.36753E-02
 -1      1275 1.21024E-01 1.18093E-01-3.96730E-01-2.78904E-03-1.31277E-02-4.59422E-02
 -1      1276 1.08153E-01 1.06931E-01-3.65414E-01 2.43420E-04-1.30623E-02-4.04675E-02
 -1      1277 1.20883E-01 1.23585E-01-4.07045E-01 6.05861E-04-1.41843E-02-2.01456E-02
 -1      1278 1.31494E-01 1.31908E-01-4.35067E-01-2.55293E-03-1.53440E-02-2.43944E-02
 -1      1279 9.81840E-02 9.76559E-02-3.25151E-01-2.41024E-03-1.29854E-02-4.02541E-02
 -1      1280 1.02062E-01 1.04402E-01-3.40187E-01-4.03035E-03-1.68337E-02-3.18088E-02
 -1      1281 1.08853E-01 1.09091E-01-3.59144E-01-1.96284E-03-1.30455E-02-2.14455E-02
 -1      1282 9.76028E-02 9.56399E-02-3.22121E-01 2.04626E-03-1.20025E-02-2.03618E-02
 -1      1283 1.14089E-01 1.13532E-01-3.74369E-01-1.50669E-03-1.82589E-02-9.00619E-03
 -1      1284 1.26610E-01 1.34227E-01-4.36022E-01 1.42585E-03-1.86415E-02-5.40968E-02
 -1      1285 1.10249E-01 1.11187E-01-3.67081E-01-2.84327E-03-1.49914E-02-5.46479E-02
 -1      1286 1.40024E-01 1.48532E-01-4.81219E-01-1.21180E-03-1.25092E-02-5.51568E-02
 -1      1287 1.32423E-01 1.34653E-01-4.36194E-01-4.40552E-03-1.20788E-02-6.30738E-02
 -1      1288 1.59150E-01 1.61288E-01-5.35784E-01 4.69932E-03-1.56744E-02-5.74103E-02
 -1      1289 1.56380E-01 1.56330E-01-5.11455E-01 9.84524E-04-2.47850E-02-4.15772E-02
 -1      1290 1.39095E-01 1.37964E-01-4.56805E-01 3.91491E-04-1.90133E-02-1.03600E-02
 -1      1291 1.43524E-01 1.48107E-01-4.88905E-01 3.14436E-03-1.80960E-02-2.63551E-02
 -1      1292 1.59910E-01 1.62425E-01-5.37032E-01-2.44064E-03-1.47516E-02-2.64336E-02
 -1      1293 8.53654E-02 9.47434E-02-3.05324E-01 2.84464E-03-1.35556E-02-5.32242E-02
 -1      1294 7.56892E-02 7.87425E-02-2.49529E-01-5.26602E-03-1.44328E-02-5.10717E-02
 -1      1295 8.92088E-02 8.70060E-02-2.91373E-01-5.97705E-05-1.69125E-02-4.71670E-02
 -1      1296 9.38179E-02 9.42679E-02-3.15850E-01-3.91457E-03-1.53315E-02-6.27059E-02
 -1      1297 8.34985E-02 8.37723E-02-2.82127E-01 3.89818E-03-1.48501E-02-3.60412E-02
 -1      1298 3.08599E-01 3.28597E-01-1.05339E+00-1.27855E-02-8.23035E-03-1.25641E-01
 -1      1299 3.61770E-01 3.75597E-01-1.23195E+00 7.55586E-03-3.71647E-02-1.18486E-01
 -1      1300 3.42736E-01 3.52965E-01-1.16428E+00 2.64124E-03-2.46501E-02-1.26964E-01
 -1      1301 2.51818E-01 2.73901E-01-8.76719E-01-4.70713E-03-2.17174E-02-1.15669E-01
 -1      1302 2.78757E-01 2.92691E-01-9.51255E-01 1.01790E-02-2.62389E-02-1.19782E-01
 -1      1303 3.78273E-01 3.76884E-01-1.27698E+00-8.65075E-03-2.87519E-02-1.20569E-01
 -1      1304 3.16789E-01 3.32657E-01-1.07738E+00-4.29127E-03-3.55357E-02-1.21706E-01
 -1      1305 2.28575E-01 2.38910E-01-7.98605E-01 1.30581E-02 1.18761E-02-1.01221E-01
 -1      1306 2.02402E-01 2.21555E-01-7.06378E-01-9.26170E-03-2.37035E-02-9.42520E-02
 -1      1307 2.60543E-01 2.82822E-01-8.93546E-01-7.12216E-03-1.52625E-02-1.07819E-01
 -1      1308 2.92130E-01 3.06597E-01-1.00741E+00 4.12926E-03-1.77328E-02-1.13770E-01
 -1      1309 3.75137E-01 3.94698E-01-1.28986E+00 5.72514E-03-2.48291E-02-1.10849E-01
 -1      1310 4.17145E-01 4.16688E-01-1.40925E+00-1.05452E-02-2.82491E-02-1.06787E-01
 -1      1311 4.01127E-01 4.09316E-01-1.35188E+00-1.25870E-03-3.92636E-02-9.56832E-02
 -1      1312 3.40215E-01 3.52802E-01-1.15702E+00-8.85497E-03-2.01624E-02-1.10017E-01
 -1      1313 3.18996E-01 3.20522E-01-1.07937E+00-1.79006E-03-1.48172E-02-1.11939E-01
 -1      1314 3.39344E-01 3.47180E-01-1.15151E+00-7.62781E-03-3.71639E-02-9.68789E-02
 -1      1315 2.77597E-01 2.80590E-01-9.37632E-01-9.58726E-04-3.30655E-02-1.06610E-01
 -1      1316 2.73206E-01 2.85653E-01-9.38386E-01 7.13585E-04-2.69170E-02-1.11366E-01
 -1      1317 2.34141E-01 2.38505E-01-7.96030E-01-5.40706E-03-1.39385E-02-1.12346E-01
 -1      1318 4.63380E-01 4.82980E-01-1.58171E+00 2.40376E-03-4.46347E-02-1.03454E-01
 -1      1319 4.44257E-01 4.69887E-01-1.53841E+00 7.64619E-03-3.29209E-02-1.14751E-01
 -1      1320 4.70080E-01 4.84928E-01-1.60346E+00-9.14491E-03-3.65852E-02-1.15350E-01
 -1      1321 4.21122E-01 4.41470E-01-1.44877E+00 2.41177E-03-3.93247E-02-1.27818E-01
 -1      1322 3.87621E-01 4.15436E-01-1.35204E+00 2.41030E-03-3.63474E-02-1.23242E-01
 -1      1323 5.22626E-01 5.33377E-01-1.77100E+00 4.54681E-03-3.15224E-02-5.42381E-02
 -1      1324 5.52127E-01 5.68391E-01-1.87162E+00-5.35852E-03-3.31516E-02-4.50297E-02
 -1      1325 5.37448E-01 5.51639E-01-1.82492E+00-8.46928E-04-4.34469E-02-7.05215E-02
 -1      1326 4.98075E-01 5.13974E-01-1.68997E+00-6.62219E-03-3.20790E-02-4.37164E-02
 -1      1327 5.17666E-01 5.22036E-01-1.72913E+00-3.78672E-03-4.15375E-02-2.63237E-02
 -1      1328 5.28812E-01 5.50882E-01-1.82410E+00 9.53927E-03-4.28434E-02-8.87732E-02
 -1      1329 5.03239E-01 5.18474E-01-1.70833E+00-9.05906E-03-3.73728E-02-8.46923E-02
 -1      1330 4.70876E-01 4.86040E-01-1.60245E+00 4.33151E-03-3.46054E-02-8.43816E-02
 -1      1331 4.48468E-01 4.63208E-01-1.52726E+00 4.59827E-03-3.70245E-02-8.21692E-02
 -1      1332 4.85377E-01 4.98367E-01-1.63974E+00 4.39416E-03-4.10711E-02-7.01272E-02
 -1      1333 4.73642E-01 4.86601E-01-1.60327E+00 9.61758E-03-3.67349E-02-4.08251E-02
 -1      1334 5.61724E-01 5.76576E-01-1.89985E+00-5.64688E-03-3.14883E-02-2.28852E-02
 -1      1335 5.72192E-01 5.99738E-01-1.96860E+00 3.74640E-03-3.51981E-02-4.31983E-02
 -1      1336 5.23148E-01 5.54426E-01-1.81018E+00 8.26356E-04-2.95203E-02-4.61612E-03
 -1      1337 5.64444E-01 5.95917E-01-1.92515E+00-8.03794E-03-2.83222E-02 7.09135E-03
 -1      1338 5.14956E-01 5.19553E-01-1.72195E+00-2.30566E-03-2.71324E-02-3.13685E-03
 -1      1339 5.65575E-01 6.00476E-01-1.95534E+00-6.21225E-03-4.70608E-02-8.50347E-02
 -1      1340 5.30584E-01 5.57600E-01-1.82960E+00-2.09703E-03-5.05072E-02-1.07273E-01
 -1      1341 5.93082E-01 6.38194E-01-2.07282E+00 7.16419E-03-4.16932E-02-7.98713E-02
 -1      1342 5.93590E-01 6.13217E-01-2.02231E+00-2.00369E-03-3.73382E-02-6.41423E-02
 -1      1343 6.07632E-01 6.25913E-01-2.07227E+00-7.90608E-04-2.66727E-02-4.45917E-02
 -1      1344 5.33390E-02 5.85303E-02-1.85028E-01-2.60862E-03-1.32314E-02-4.47214E-02
 -1      1345 4.34721E-02 4.73591E-02-1.51814E-01 2.46083E-03-4.55751E-03-4.30525E-02
 -1      1346 4.98142E-02 4.96500E-02-1.60711E-01-1.86533E-03-1.51014E-02-3.90980E-02
 -1      1347 6.29858E-02 6.46550E-02-2.22627E-01-6.93549E-04-1.72866E-02-4.39337E-02
 -1      1348 6.63522E-02 6.19432E-02-2.18124E-01 1.54450E-03-7.33107E-03-5.15728E-02
 -1      1349 5.29171E-02 5.40718E-02-1.78976E-01-1.21252E-03-1.21301E-02-3.05119E-02
 -1      1350 4.20773E-02 4.60287E-02-1.46110E-01 1.31521E-03-1.08608E-02-2.96892E-02
 -1      1351 6.48845E-02 6.44607E-02-2.12540E-01 1.10232E-03-1.46846E-02-3.02701E-02
 -1      1352 7.36992E-02 7.04811E-02-2.39969E-01-2.74472E-03-1.26361E-02-3.26257E-02
 -1      1353 5.90266E-02 5.95037E-02-1.94598E-01-3.01364E-05-1.54388E-02-2.45496E-02
 -1      1354 3.18907E-02 3.72451E-02-1.17384E-01 1.02914E-03-6.86741E-03-3.98463E-02
 -1      1355 3.76052E-02 4.33932E-02-1.32795E-01-1.76497E-03-3.18392E-03-4.33623E-02
 -1      1356 6.03193E-02 6.72078E-02-2.14820E-01 4.83659E-03-9.57296E-03-5.32072E-02
 -1      1357 4.62447E-02 5.31076E-02-1.70640E-01-6.97801E-04-8.37460E-03-5.05424E-02
 -1      1358 5.47432E-02 6.08371E-02-1.92127E-01-4.24666E-03-6.94079E-03-5.55020E-02
 -1      1359 3.27161E-02 3.67140E-02-1.16649E-01-1.64026E-03-9.73082E-03-4.39560E-02
 -1      1360 2.72223E-02 3.03471E-02-9.53332E-02-2.14244E-03-7.42260E-03-3.32398E-02
 -1      1361 2.06153E-02 2.44011E-02-7.62956E-02-3.73376E-03-4.80472E-03-3.47870E-02
 -1      1362 3.27366E-02 3.35768E-02-1.12436E-01 1.30239E-04-1.11046E-02-2.96065E-02
 -1      1363 3.93084E-02 3.56521E-02-1.27118E-01-8.31968E-04-1.05667E-02-2.42848E-02
 -1      1364 4.98898E-01 7.42427E-01-2.21929E+00-1.59730E-03-3.18088E-02 5.27950E-02
 -1      1365 4.57017E-01 6.24115E-01-1.88522E+00 1.00127E-04-5.71117E-03 6.09623E-02
 -1      1366 4.83070E-01 6.54199E-01-2.00894E+00-9.11345E-03-3.21013E-02 6.94916E-03
 -1      1367 5.03856E-01 8.22369E-01-2.42027E+00-8.28920E-03-5.01026E-02 6.56576E-02
 -1      1368 4.59637E-01 8.06232E-01-2.33214E+00-1.65565E-03-5.30311E-02 1.42738E-01
 -1      1369 5.19743E-01 6.72403E-01-2.08315E+00-7.59984E-03-2.56569E-02-3.20411E-02
 -1      1370 4.51045E-01 5.66692E-01-1.75224E+00 6.56410E-04-4.55324E-02-3.08348E-02
 -1      1371 5.90362E-01 8.46437E-01-2.56258E+00-1.07568E-02-5.06457E-02-4.80687E-02
 -1      1372 5.65474E-01 7.61943E-01-2.33251E+00-4.68711E-04-4.54040E-02-4.66928E-02
 -1      1373 6.24184E-01 8.32275E-01-2.56604E+00 3.44667E-03-4.43304E-02-8.31967E-02
 -1      1374 6.10467E-01 9.70048E-01-2.82629E+00-4.78662E-03-5.69218E-02-6.87818E-02
 -1      1375 5.50483E-01 8.77313E-01-2.60908E+00 5.51178E-03-5.47603E-02-8.69319E-03
 -1      1376 5.41055E-01 6.75996E-01-2.12295E+00-4.63360E-03-3.58929E-02-6.13836E-02
 -1      1377 4.90384E-01 9.49565E-01-2.70818E+00 6.55872E-04-5.56939E-02 4.66118E-02
 -1      1378 4.29526E-01 6.19001E-01-1.83505E+00-8.60870E-03-2.15349E-02 9.97644E-02
 -1      1379 4.17297E-01 7.25444E-01-2.06663E+00 6.00279E-03-2.86500E-02 1.74636E-01
 -1      1380 4.19355E-01 7.94991E-01-2.27481E+00-4.88782E-03-2.17631E-02 2.12413E-01
 -1      1381 4.20806E-01 5.14054E-01-1.62272E+00 9.80857E-03-1.08892E-02-5.43741E-02
 -1      1382 9.84751E-02 1.09412E-01-3.50517E-01 2.74194E-03-2.01222E-02-6.77444E-02
 -1      1383 8.04633E-02 8.50028E-02-2.72583E-01-2.95118E-03-1.58223E-02-6.27735E-02
 -1      1384 6.34698E-02 7.13494E-02-2.24462E-01-4.65440E-03-9.22212E-03-6.21509E-02
 -1      1385 5.82349E-02 6.68972E-02-2.16954E-01 1.97753E-03-1.24975E-02-5.89158E-02
 -1      1386 4.46342E-02 4.78427E-02-1.55789E-01-2.74620E-03-7.36532E-03-5.03518E-02
 -1      1387 8.28946E-02 8.09855E-02-2.68630E-01-3.86641E-04-1.50395E-02-2.76816E-02
 -1      1388 1.38745E-01 1.48597E-01-4.78913E-01-1.51144E-03-2.29880E-02-7.13009E-02
 -1      1389 1.22721E-01 1.29732E-01-4.10139E-01-1.01236E-03-1.91077E-02-6.85611E-02
 -1      1390 1.60046E-01 1.59603E-01-5.39613E-01 6.21533E-03-2.11895E-02-7.26277E-02
 -1      1391 1.46919E-01 1.53202E-01-4.96085E-01-2.13513E-03-1.54794E-02-7.54188E-02
 -1      1392 1.74211E-01 1.76074E-01-5.84049E-01-2.24887E-03-1.41852E-02-5.94201E-02
 -1      1393 1.01781E-01 1.13087E-01-3.55916E-01-3.74708E-03-1.31919E-02-7.54741E-02
 -1      1394 1.50262E-01 1.52171E-01-5.10127E-01-7.05094E-04-2.36466E-02-8.11439E-02
 -1      1395 1.26337E-01 1.30238E-01-4.27126E-01-3.40657E-03-1.25279E-02-7.93530E-02
 -1      1396 1.01601E-01 1.13146E-01-3.59658E-01-3.75112E-04-1.14867E-02-7.42664E-02
 -1      1397 1.01422E-01 1.12015E-01-3.57257E-01 1.13615E-04-1.90961E-02-7.70965E-02
 -1      1398 8.51899E-02 8.50239E-02-2.82651E-01-5.19280E-03-7.39058E-03-6.89378E-02
 -1      1399 4.45299E-01 4.42668E-01-1.47083E+00-3.18257E-03-4.18854E-02-5.96491E-02
 -1      1400 4.19571E-01 4.37412E-01-1.43067E+00-3.86244E-03-2.81940E-02-7.97932E-02
 -1      1401 3.93216E-01 3.99226E-01-1.32567E+00-2.42065E-04-2.85840E-02-8.03294E-02
 -1      1402 4.21832E-01 4.32327E-01-1.42562E+00 1.76424E-03-3.03075E-02-3.69888E-02
 -1      1403 4.44383E-01 4.55866E-01-1.50597E+00-3.91978E-03-2.92063E-02-3.86518E-02
 -1      1404 4.65848E-01 4.63593E-01-1.54222E+00 2.75077E-03-3.75579E-02-1.41187E-02
 -1      1405 1.94313E-01 1.96761E-01-6.58814E-01-1.04275E-03-1.66670E-02-8.42539E-02
 -1      1406 1.76779E-01 1.76677E-01-5.99551E-01-5.61702E-04-1.26213E-02-8.54096E-02
 -1      1407 1.90717E-01 1.95927E-01-6.48842E-01-5.73493E-03-2.76771E-02-7.39688E-02
 -1      1408 2.29588E-01 2.33735E-01-7.68857E-01-2.67029E-03-2.64956E-02-7.85254E-02
 -1      1409 2.09421E-01 2.14379E-01-7.03854E-01-2.10527E-03-1.81035E-02-9.26474E-02
 -1      1410 2.12161E-01 2.10843E-01-7.06875E-01-5.51493E-03-2.21227E-02-6.15857E-02
 -1      1411 1.86285E-01 1.90919E-01-6.37431E-01 2.68896E-03-2.08008E-02-5.95849E-02
 -1      1412 2.30872E-01 2.33594E-01-7.70035E-01-9.94815E-04-1.75130E-02-6.36979E-02
 -1      1413 2.40337E-01 2.47201E-01-8.05377E-01-5.46157E-03-2.18096E-02-6.82215E-02
 -1      1414 2.22495E-01 2.22991E-01-7.39406E-01-7.41684E-03-2.91264E-02-4.81967E-02
 -1      1415 1.49217E-01 1.60200E-01-5.17421E-01 1.69131E-03-2.01255E-02-8.72385E-02
 -1      1416 2.08957E-01 2.24137E-01-7.15906E-01 6.66313E-04-3.03862E-02-9.55642E-02
 -1      1417 1.80474E-01 1.77905E-01-6.06825E-01-3.81004E-03-1.76829E-02-9.09627E-02
 -1      1418 1.45467E-01 1.57749E-01-5.10700E-01-9.81997E-04-1.56006E-02-8.96235E-02
 -1      1419 1.49084E-01 1.55117E-01-5.08597E-01 2.12358E-04-2.42777E-02-9.20805E-02
 -1      1420 1.24964E-01 1.26113E-01-4.18701E-01-5.86492E-03-9.03817E-03-8.46166E-02
 -1      1421 1.93405E-01 1.90604E-01-6.30515E-01 7.15951E-04-2.35567E-02-4.32732E-02
 -1      1422 5.02096E-01 5.35256E-01-1.76139E+00 1.24508E-02-3.87028E-02-1.17104E-01
 -1      1423 2.67349E-01 2.84090E-01-9.20346E-01 4.12930E-03-2.86587E-02-9.90938E-02
 -1      1424 2.44497E-01 2.41019E-01-8.08011E-01-1.50631E-03-1.85604E-02-9.11806E-02
 -1      1425 2.67142E-01 2.70951E-01-8.83662E-01-6.22066E-03-2.26674E-02-8.22186E-02
 -1      1426 3.05413E-01 3.01693E-01-1.01974E+00 9.49724E-03-2.62423E-02-9.56794E-02
 -1      1427 2.76053E-01 2.88088E-01-9.33309E-01-1.95722E-03-1.75028E-02-1.03570E-01
 -1      1428 2.82640E-01 2.93815E-01-9.62957E-01-8.50411E-04-2.03005E-02-7.09623E-02
 -1      1429 2.60320E-01 2.69210E-01-8.84924E-01 3.10293E-03-2.27426E-02-6.93059E-02
 -1      1430 3.06263E-01 3.08085E-01-1.02723E+00 6.09101E-03-2.10300E-02-7.55134E-02
 -1      1431 3.20255E-01 3.23709E-01-1.07316E+00-2.50367E-03-2.04508E-02-7.89589E-02
 -1      1432 3.00457E-01 3.04580E-01-9.96723E-01 9.96318E-04-3.15884E-02-5.53546E-02
 -1      1433 2.04078E-01 2.18539E-01-7.09061E-01 7.57023E-04-2.07958E-02-9.89064E-02
 -1      1434 2.42970E-01 2.43195E-01-8.12689E-01-4.33870E-03-1.49699E-02-1.05346E-01
 -1      1435 1.99616E-01 2.12295E-01-6.86568E-01 9.00156E-04-1.72432E-02-1.00278E-01
 -1      1436 2.04750E-01 2.08712E-01-6.89792E-01 3.40079E-04-2.99894E-02-1.05345E-01
 -1      1437 1.75263E-01 1.71525E-01-5.77750E-01-6.25679E-03-1.01223E-02-9.75015E-02
 -1      1438 2.59521E-01 2.60750E-01-8.65806E-01-1.34901E-03-2.91567E-02-5.19882E-02
 -1      1439 3.68695E-01 3.90684E-01-1.26490E+00-3.86647E-03-2.07385E-02-1.14514E-01
 -1      1440 3.80795E-01 3.92974E-01-1.30465E+00-8.57121E-03-3.48991E-02-1.21013E-01
 -1      1441 4.25771E-01 4.65208E-01-1.50677E+00 6.75129E-03-1.40247E-02-1.24243E-01
 -1      1442 3.61509E-01 4.06825E-01-1.29289E+00 1.51581E-03-1.05292E-02-9.38200E-02
 -1      1443 4.92661E-01 5.28340E-01-1.71932E+00-1.15636E-02-3.15199E-02-1.20951E-01
 -1      1444 4.75823E-01 5.19925E-01-1.69407E+00 9.40340E-04-2.23943E-02-1.19494E-01
 -1      1445 3.92399E-01 4.40718E-01-1.38089E+00-2.00663E-03-2.01086E-03-9.39545E-02
 -1      1446 5.21492E-01 5.92003E-01-1.90044E+00 2.50868E-03-2.77565E-02-1.13394E-01
 -1      1447 4.72124E-01 5.26333E-01-1.68239E+00-6.29117E-03-1.43520E-02-1.10013E-01
 -1      1448 4.41948E-01 5.08488E-01-1.61188E+00-7.70593E-03-2.66027E-02-8.91420E-02
 -1      1449 3.33387E-01 3.18221E-01-1.11884E+00-4.70344E-03-1.46669E-02-1.10241E-01
 -1      1450 5.48535E-01 6.02170E-01-1.93882E+00-6.20054E-03-4.53213E-02-1.13043E-01
 -1      1451 3.66916E-01 3.69651E-01-1.23292E+00-6.94981E-03-2.91317E-02-8.11756E-02
 -1      1452 3.32508E-01 3.42348E-01-1.14000E+00 3.43589E-03-2.66064E-02-7.99860E-02
 -1      1453 3.87398E-01 3.88470E-01-1.29000E+00-1.01393E-02-4.03532E-02-6.20313E-02
 -1      1454 3.47156E-01 3.46075E-01-1.14133E+00 1.21394E-04-3.01681E-02-5.78675E-02
 -1      1455 5.99155E-01 6.42412E-01-2.08948E+00-4.95005E-03-4.36756E-02-9.76549E-02
 -1      1456 5.81046E-01 6.48521E-01-2.09665E+00 3.51442E-03-4.88574E-02-1.03578E-01
 -1      1457 6.31635E-01 6.71587E-01-2.19982E+00-3.96192E-03-3.83744E-02-7.41878E-02
 -1      1458 5.63646E-03 4.13090E-03-1.48921E-02 2.37252E-04-1.51457E-03 6.99899E-04
 -1      1459 7.85071E-03 6.85156E-03-2.24818E-02 6.30821E-04-3.39708E-03 2.29376E-03
 -1      1460 1.23244E-02 9.32992E-03-3.41734E-02-8.06147E-04-2.11026E-03 2.05622E-03
 -1      1461 5.76510E-03 3.81441E-03-1.46968E-02-2.15444E-06-2.98309E-03-1.92227E-03
 -1      1462 5.54345E-01 6.51465E-01-2.07654E+00-1.20505E-03-4.00567E-02-1.01315E-01
 -1      1463 5.72059E-01 6.49998E-01-2.06986E+00-2.65833E-03-4.96356E-02-1.08435E-01
 -1      1464 5.98068E-01 7.28720E-01-2.28995E+00 3.00692E-03-3.91273E-02-9.60830E-02
 -1      1465 5.56576E-01 6.64342E-01-2.11058E+00-3.84119E-03-3.05632E-02-8.57937E-02
 -1      1466 6.18775E-01 6.97294E-01-2.24677E+00-2.20777E-03-4.09604E-02-1.02153E-01
 -1      1467 6.41470E-01 7.66435E-01-2.41529E+00-1.94765E-04-4.94935E-02-9.88959E-02
 -1      1468 6.27661E-01 7.95778E-01-2.47510E+00-7.66179E-04-4.98244E-02-9.13355E-02
 -1      1469 6.42963E-01 7.49412E-01-2.38931E+00 2.17310E-03-5.20786E-02-9.72801E-02
 -1      1470 6.59860E-01 7.34437E-01-2.36558E+00-2.22349E-03-5.62358E-02-9.29797E-02
 -1      1471 6.79450E-01 8.14570E-01-2.56955E+00-1.58311E-04-4.21037E-02-1.00619E-01
 -1      1472 5.05505E-01 5.93517E-01-1.87878E+00 2.46322E-03-3.82522E-02-8.12008E-02
 -1      1473 1.93318E-01 1.89328E-01-6.45503E-01 3.98799E-03-1.26735E-02-8.58564E-02
 -1      1474 1.96228E-01 1.98387E-01-6.64141E-01 1.65555E-03-1.85065E-02-8.93029E-02
 -1      1475 6.72080E-01 8.77526E-01-2.67151E+00 2.64724E-03-4.82684E-02-1.03890E-01
 -1      1476 6.77115E-01 9.83148E-01-2.97265E+00 5.55606E-03-7.83127E-02-1.18783E-01
 -1      1477 7.18950E-01 9.37926E-01-2.90875E+00 1.33903E-02-6.20249E-02-1.20451E-01
 -1      1478 7.40719E-01 1.00244E+00-3.07716E+00 4.01182E-03-5.16190E-02-1.62249E-01
 -1      1479 6.12228E-01 1.04749E+00-3.03828E+00 9.90869E-03-7.33868E-02-1.02689E-01
 -1      1480 7.03025E-01 8.94355E-01-2.77345E+00 2.55170E-03-4.33617E-02-1.04995E-01
 -1      1481 7.56995E-01 8.95505E-01-2.85466E+00 1.44852E-02-4.91646E-02-1.15365E-01
 -1      1482 7.09571E-01 8.49269E-01-2.68830E+00 6.43153E-03-5.16871E-02-1.02519E-01
 -1      1483 3.95834E-01 4.01711E-01-1.32867E+00-3.73141E-03-2.69290E-02-4.10102E-02
 -1      1484 4.11364E-01 4.06643E-01-1.35372E+00-2.99123E-03-3.39706E-02-1.83956E-02
 -1      1485 3.71747E-01 3.73762E-01-1.24905E+00 7.02437E-04-2.49071E-02-3.85927E-02
 -1      1486 4.05666E-01 4.15201E-01-1.37589E+00-5.61965E-03-2.33995E-02 1.14212E-02
 -1      1487 4.16612E-01 4.56565E-01-1.44657E+00 5.09453E-03-2.01083E-02 8.46807E-03
 -1      1488 3.78245E-01 3.87326E-01-1.28861E+00 3.65104E-03-2.68353E-02-2.44906E-04
 -1      1489 4.56582E-01 4.92093E-01-1.56116E+00-4.09269E-03-4.75292E-03 1.75010E-02
 -1      1490 1.45267E-01 1.53022E-01-4.98780E-01 2.25975E-03-1.76521E-02-8.30758E-02
 -1      1491 1.03766E-01 1.04743E-01-3.51988E-01 2.19788E-03-1.36755E-02-7.06216E-02
 -1      1492 7.09122E-01 7.77810E-01-2.55352E+00 4.52800E-03-4.95225E-02-3.34102E-02
 -1      1493 7.77978E-01 8.27747E-01-2.69017E+00-2.92414E-03-4.42537E-02-5.78576E-02
 -1      1494 7.20178E-01 7.86827E-01-2.51670E+00-3.06206E-03-3.00226E-02-3.01368E-02
 -1      1495 7.37243E-01 8.20922E-01-2.66029E+00-3.22817E-03-3.65725E-02-6.78303E-02
 -1      1496 7.66669E-01 8.54074E-01-2.76554E+00 1.48708E-02-4.81313E-02-8.86307E-02
 -1      1497 7.12326E-01 7.67073E-01-2.48575E+00-2.44548E-03-4.24575E-02-4.76040E-02
 -1      1498 6.74185E-01 7.38405E-01-2.37556E+00 1.70140E-02-4.17471E-02-3.08578E-02
 -1      1499 6.93625E-01 7.58335E-01-2.45121E+00-8.95206E-03-4.79568E-02-7.73554E-02
 -1      1500 7.16806E-01 8.03474E-01-2.57372E+00 1.10287E-03-4.67007E-02-7.22364E-02
 -1      1501 7.11400E-01 8.31931E-01-2.62387E+00 1.82965E-03-5.77067E-02-9.14918E-02
 -1      1502 7.90258E-01 8.93598E-01-2.87320E+00-3.81786E-03-3.99690E-02-1.04854E-01
 -1      1503 8.06430E-01 8.89704E-01-2.83820E+00 1.29094E-02-4.18440E-02-6.94185E-02
 -1      1504 8.05079E-01 9.39406E-01-2.99253E+00 1.38855E-02-4.04408E-02-1.29469E-01
 -1      1505 7.63515E-02 7.27560E-02-2.46591E-01 1.33304E-03-1.03834E-02-1.99466E-02
 -1      1506 8.76811E-02 8.55708E-02-2.88413E-01-1.69904E-03-1.09383E-02-1.87099E-02
 -1      1507 6.51265E-02 6.52640E-02-2.15301E-01-2.26913E-03-1.00678E-02-1.56610E-02
 -1      1508 7.03827E-02 6.84134E-02-2.29438E-01-8.75847E-04-1.53189E-02-8.59817E-03
 -1      1509 5.44324E-02 5.33137E-02-1.77683E-01 3.61032E-03-1.26963E-02-1.52838E-02
 -1      1510 8.96931E-02 9.12148E-02-3.01804E-01-3.06135E-03-1.59107E-02-9.19223E-03
 -1      1511 7.10325E-02 6.80349E-02-2.30306E-01 9.55783E-05-1.11067E-02 2.95673E-03
 -1      1512 8.48868E-02 7.92762E-02-2.69990E-01 6.12338E-04-1.39134E-02-5.03926E-04
 -1      1513 9.38874E-02 9.01838E-02-3.01918E-01-7.82501E-04-1.39467E-02 1.06284E-03
 -1      1514 6.55643E-02 7.60738E-02-2.35553E-01 2.52454E-03-1.73547E-02-5.99195E-02
 -1      1515 3.13451E-02 3.86436E-02-1.19347E-01-3.95093E-03-1.12726E-02-4.44327E-02
 -1      1516 6.71552E-01 6.92360E-01-2.28591E+00-9.55049E-04-4.63812E-02-3.57654E-02
 -1      1517 6.72760E-01 6.83985E-01-2.25678E+00 1.11917E-02-3.59085E-02-1.78675E-02
 -1      1518 6.13042E-01 6.34256E-01-2.12648E+00-6.96319E-03-4.11738E-02 1.44835E-03
 -1      1519 2.82755E-02 3.52791E-02-1.06898E-01-8.17722E-04-4.98862E-03-4.42339E-02
 -1      1520 2.14438E-02 3.15292E-02-8.80638E-02-5.42234E-03-4.35621E-03-4.02597E-02
 -1      1521 1.43776E-02 1.73692E-02-6.12739E-02 1.36412E-03-5.91987E-03-3.21310E-02
 -1      1522 4.23631E-03 4.79498E-03-1.99707E-02-1.01000E-03-2.81007E-03-2.27957E-02
 -1      1523 8.16568E-03 1.05283E-02-3.48560E-02-2.99078E-04 1.68687E-03-2.49418E-02
 -1      1524 1.39800E-02 1.62441E-02-5.77185E-02-1.69044E-03-8.09455E-03-3.54517E-02
 -1      1525 1.14290E-01 1.14260E-01-3.84111E-01-2.84527E-03-1.16192E-02 3.55574E-03
 -1      1526 1.24767E-01 1.25754E-01-4.18723E-01 3.73209E-03-1.39133E-02-7.53557E-04
 -1      1527 1.01220E-01 1.01634E-01-3.41165E-01-1.31732E-03-1.41343E-02 3.36721E-03
 -1      1528 1.40703E-01 1.44716E-01-4.74619E-01-3.95469E-03-1.38620E-02 4.99650E-03
 -1      1529 6.06973E-01 1.26131E+00-3.51776E+00 2.66149E-02-7.22129E-02-3.56198E-01
 -1      1530 4.82342E-01 1.27900E+00-3.48842E+00 2.58937E-02-1.31686E-01-2.19135E-01
 -1      1531 6.03678E-01 1.19450E+00-3.38832E+00 2.86652E-02-9.80788E-02-2.34191E-01
 -1      1532 7.68099E-01 1.16869E+00-3.51094E+00 3.45117E-02-5.97817E-02-3.78269E-01
 -1      1533 6.37062E-01 1.26985E+00-3.59144E+00 4.28931E-02-7.78601E-02-4.04989E-01
 -1      1534 6.04423E-01 1.12317E+00-3.22746E+00 4.38019E-04-7.57977E-02-1.53681E-01
 -1      1535 6.99374E-01 1.10094E+00-3.28661E+00 2.37587E-03-8.41618E-02-2.30332E-01
 -1      1536 7.51945E-01 1.03310E+00-3.16432E+00 1.27650E-02-7.50889E-02-1.85832E-01
 -1      1537 8.05650E-01 1.09009E+00-3.32205E+00-7.37670E-03-6.26558E-02-2.53005E-01
 -1      1538 7.89985E-01 1.12583E+00-3.39531E+00 2.59585E-02-6.33743E-02-3.03234E-01
 -1      1539 8.42445E-01 1.08280E+00-3.28738E+00 1.18074E-02-5.00839E-02-2.42141E-01
 -1      1540 8.47220E-01 1.09856E+00-3.40108E+00 7.35488E-03-1.13698E-02-3.91580E-01
 -1      1541 3.89917E-01 1.31344E+00-3.42759E+00-2.47590E-02-9.02798E-02-8.36870E-02
 -1      1542 3.53444E-01 1.39842E+00-3.60159E+00 1.96617E-02-1.10700E-01-1.73157E-01
 -1      1543 4.44986E-01 1.39727E+00-3.70405E+00 6.46939E-02-1.25407E-01-4.05770E-01
 -1      1544 5.39785E-01 1.30084E+00-3.60539E+00 4.06963E-02-4.83364E-02-5.01479E-01
 -1      1545 3.32144E-01 1.48183E+00-3.78160E+00 6.59409E-02-1.64517E-01-2.31112E-01
 -1      1546 5.28717E-01 1.10444E+00-3.09872E+00-4.09019E-03-7.85884E-02-6.41729E-02
 -1      1547 4.23984E-01 1.19870E+00-3.20581E+00 6.83619E-03-1.01947E-01-1.56863E-02
 -1      1548 4.77618E-01 1.08361E+00-2.95344E+00-7.61894E-03-6.04103E-02 1.50896E-02
 -1      1549 3.14608E-01 1.31670E+00-3.32213E+00-9.64972E-03-8.34570E-02 4.35576E-02
 -1      1550 1.75046E-01 1.79311E-01-5.93787E-01 3.60196E-03-2.04214E-02-3.13143E-02
 -1      1551 1.96953E-01 1.94374E-01-6.50818E-01-7.93673E-04-1.72537E-02-2.73734E-02
 -1      1552 1.69970E-01 1.66657E-01-5.54140E-01-2.81777E-03-2.36375E-02-1.36826E-02
 -1      1553 2.01388E-01 2.02982E-01-6.61828E-01-3.50743E-03-2.26806E-02-1.55121E-02
 -1      1554 2.11501E-01 2.11914E-01-7.06383E-01-5.55054E-04-1.87826E-02-2.89006E-02
 -1      1555 1.71322E-01 1.71534E-01-5.72282E-01-3.92398E-03-1.65414E-02 5.47714E-03
 -1      1556 1.85447E-01 1.87537E-01-6.24606E-01 2.93309E-03-1.74371E-02 1.71869E-03
 -1      1557 1.53428E-01 1.56460E-01-5.21769E-01 3.83410E-03-1.80080E-02 2.78429E-03
 -1      1558 2.02742E-01 2.03563E-01-6.79771E-01-3.95406E-03-1.66294E-02 5.51097E-03
 -1      1559 2.26525E-01 2.30057E-01-7.61502E-01-3.70771E-03-2.09170E-02-3.27679E-02
 -1      1560 5.66507E-01 5.97399E-01-1.95984E+00 1.13965E-02-4.64233E-02 5.89129E-03
 -1      1561 6.19277E-01 6.34028E-01-2.08292E+00-4.29254E-03-4.14684E-02-1.92011E-02
 -1      1562 6.15934E-01 6.40914E-01-2.08373E+00-1.43474E-02-3.09089E-02 1.61858E-02
 -1      1563 6.31253E-01 6.54875E-01-2.16465E+00 3.15037E-03-3.79115E-02-4.62220E-02
 -1      1564 4.70401E-01 4.74940E-01-1.60734E+00 7.03053E-03-3.87767E-02 6.07508E-03
 -1      1565 7.94419E-01 9.94235E-01-3.07829E+00 1.79196E-02-4.83216E-02-1.61462E-01
 -1      1566 8.35639E-01 9.54769E-01-3.07249E+00 7.56872E-03-1.70001E-02-1.54429E-01
 -1      1567 2.49119E-01 2.47269E-01-8.28053E-01 6.31970E-03-2.48927E-02-3.69319E-02
 -1      1568 2.69504E-01 2.70505E-01-8.95536E-01-2.18487E-03-2.59236E-02-3.41765E-02
 -1      1569 2.40659E-01 2.34115E-01-7.83215E-01-1.11833E-03-2.84660E-02-1.56485E-02
 -1      1570 2.77549E-01 2.73524E-01-9.06885E-01-2.53247E-03-2.66130E-02-1.48314E-02
 -1      1571 2.84134E-01 2.92675E-01-9.64099E-01 3.46211E-03-2.63669E-02-3.57303E-02
 -1      1572 2.36708E-01 2.42008E-01-8.02688E-01-4.55135E-03-1.81430E-02 7.14687E-03
 -1      1573 2.51144E-01 2.55801E-01-8.50103E-01 4.94935E-03-1.83398E-02-2.85654E-03
 -1      1574 2.18257E-01 2.20429E-01-7.36320E-01 2.49450E-03-2.09297E-02 7.35446E-04
 -1      1575 2.75535E-01 2.87073E-01-9.36435E-01-7.28249E-03-1.91459E-02 6.91132E-03
 -1      1576 3.03002E-01 3.09918E-01-1.02231E+00-3.65045E-03-2.08930E-02-3.62333E-02
 -1      1577 3.23565E-01 3.33423E-01-1.10033E+00 4.87509E-03-2.75144E-02-4.33219E-02
 -1      1578 3.52192E-01 3.51521E-01-1.17219E+00-1.31796E-03-2.26764E-02-3.78104E-02
 -1      1579 3.18485E-01 3.15490E-01-1.04665E+00-4.17237E-03-3.29405E-02-1.93253E-02
 -1      1580 3.60343E-01 3.65183E-01-1.19322E+00-4.63847E-03-3.02318E-02-2.11833E-02
 -1      1581 3.17046E-01 3.21739E-01-1.06834E+00-5.87536E-03-2.41518E-02 8.01821E-03
 -1      1582 3.34844E-01 3.42874E-01-1.13714E+00 3.87643E-03-2.39522E-02 5.24581E-05
 -1      1583 2.92814E-01 2.99839E-01-9.99560E-01 5.47804E-03-2.76073E-02 1.74063E-03
 -1      1584 3.58701E-01 3.64745E-01-1.21384E+00-5.95890E-03-2.24166E-02 7.73906E-03
 -1      1585 3.97947E-01 1.04849E+00-2.80452E+00 8.14589E-03-5.84609E-02 1.47138E-01
 -1      1586 3.70265E-01 9.54439E-01-2.58830E+00-4.20717E-02-3.18961E-02 2.20691E-01
 -1      1587 3.57334E-01 8.31762E-01-2.31115E+00-2.26248E-02-2.59645E-02 2.86840E-01
 -1      1588 3.26722E-01 1.09734E+00-2.88687E+00-1.86900E-02-4.61356E-02 2.09923E-01
 -1      1589 1.45663E-01 9.74200E-01-2.44475E+00-2.70933E-02 6.66354E-04 3.48338E-01
 -1      1590 2.02920E-01 1.14430E+00-2.90382E+00-8.37630E-03-6.75727E-02 2.76508E-01
 -1      1591 2.26800E-01 1.25607E+00-3.11604E+00-4.15341E-02-6.42532E-02 1.65752E-01
 -1      1592 6.54630E-01 6.87488E-01-2.26575E+00-2.62416E-03-3.75706E-02-6.13013E-02
 -1      1593 6.55909E-01 7.18634E-01-2.32625E+00 1.06828E-02-5.13938E-02-7.54481E-02
 -1      1594 3.25460E-02 2.99708E-02-1.05207E-01 1.69215E-03-9.90838E-03-1.73087E-02
 -1      1595 2.93939E-02 2.66413E-02-8.94710E-02 5.66626E-04-7.71993E-03-1.22559E-02
 -1      1596 4.29431E-02 4.06381E-02-1.40593E-01-3.22116E-03-9.47259E-03-1.60755E-02
 -1      1597 6.08456E-03 4.48262E-03-1.63153E-02 1.43380E-05-2.86362E-03-5.67533E-03
 -1      1598 9.78914E-03 7.04157E-03-2.63963E-02-4.70499E-04-4.17333E-03-4.91179E-03
 -1      1599 8.08972E-01 1.02994E+00-3.13697E+00 2.44662E-02-8.89357E-03-1.62899E-01
 -1      1600 2.19093E-02 2.29627E-02-7.52598E-02 1.45544E-03-7.73149E-03-8.80411E-03
 -1      1601 3.20227E-02 2.85776E-02-9.83006E-02-9.78328E-04-6.92404E-03-5.62507E-03
 -1      1602 2.97798E-02 2.98203E-02-9.56385E-02 8.03620E-04-5.97163E-03 1.66917E-03
 -1      1603 3.60456E-02 3.38985E-02-1.13764E-01-2.52605E-04-7.34425E-03-4.61208E-04
 -1      1604 4.86898E-02 4.54410E-02-1.55151E-01-8.18177E-04-1.16082E-02-7.46113E-03
 -1      1605 4.22867E-02 3.75770E-02-1.35201E-01 2.33913E-03-6.56771E-03-2.11506E-03
 -1      1606 5.41712E-02 5.23406E-02-1.72066E-01-1.09719E-03-8.67276E-03 8.92423E-04
 -1      1607 4.02764E-02 3.75468E-02-1.27604E-01-1.21130E-03-7.42965E-03 5.11912E-03
 -1      1608 1.74218E-02 1.60311E-02-5.36793E-02-1.03164E-03-5.66827E-03-8.91670E-03
 -1      1609 2.25630E-02 2.03892E-02-6.72256E-02 1.14912E-03-7.53472E-03-3.80417E-03
 -1      1610 1.33051E-02 1.06519E-02-3.83002E-02-2.47426E-05-4.73306E-03-6.71522E-03
 -1      1611 2.02758E-02 1.94056E-02-6.32708E-02 4.54252E-04-3.65427E-03 1.19158E-03
 -1      1612 2.55461E-02 2.46354E-02-8.23451E-02 1.54106E-04-5.76301E-03 7.11652E-04
 -1      1613 1.21920E-02 1.07927E-02-3.71057E-02 8.99458E-04-5.06127E-03-2.61609E-03
 -1      1614 1.53840E-02 1.35524E-02-4.69032E-02-7.17913E-04-3.96697E-03 1.54049E-03
 -1      1615 9.50477E-02 9.04160E-02-3.07782E-01-1.74728E-03-1.02725E-02 1.41327E-02
 -1      1616 5.90949E-02 5.98415E-02-1.97110E-01 5.04613E-04-1.14759E-02 3.52551E-03
 -1      1617 5.16193E-02 5.01333E-02-1.65286E-01 2.14566E-03-5.76732E-03 7.24110E-03
 -1      1618 4.62910E-02 4.53391E-02-1.42855E-01 1.86306E-03-9.57418E-03 1.09305E-02
 -1      1619 1.34446E-02-2.69526E-04-6.75975E-02 3.16037E-03-7.65709E-02-1.25925E-02
 -1      1620-2.50415E-03-3.84699E-02 4.61243E-02 1.03849E-01-1.04380E-01 2.65690E-02
 -1      1621-4.84021E-02-3.07672E-03 7.11690E-02 6.70228E-02 1.28423E-01 4.39747E-02
 -1      1622-4.16792E-03 3.52888E-02-6.18837E-01 1.32280E-01 3.63789E-01-2.12148E-02
 -1      1623 2.08305E-03 3.99056E-02-7.82983E-01-2.15916E-02 3.81235E-01 1.43675E-01
 -1      1624-1.41722E-04-4.45968E-05-1.96495E-01-4.36068E-04 2.48537E-01 4.85610E-03
 -1      1625-2.62265E-02-2.08368E-01 1.89756E+00 1.17880E-01 3.92534E-02 2.00955E-01
 -1      1626-6.06293E-03-1.61674E-03 7.72928E-01 4.01281E-03 1.44602E-01 2.63498E-01
 -1      1627-5.17938E-02 2.09203E-01-1.35965E+00-4.11737E-02 1.05111E-01-1.66055E-01
 -1      1628 1.31455E-02-2.83553E-01 2.08226E+00 8.39053E-02-1.45834E-01 7.04650E-02
 -1      1629 1.59387E-02-2.08784E-01 1.90395E+00-4.40725E-02-1.49611E-01 1.70199E-01
 -1      1630-1.32038E-02 4.31509E-02-1.70133E+00-2.74171E-03-3.39634E-01-9.37698E-02
 -1      1631-5.23804E-06 5.03178E-05 1.08984E-01 1.12812E-05-2.57401E-03 4.76304E-02
 -1      1632-6.42173E-05 1.83427E-03-1.53546E+00 4.01970E-04-1.13699E-01-1.39838E-01
 -1      1633-1.92916E-04-1.99629E-03 1.33523E+00-6.17502E-04-1.61750E-01-1.21112E-01
 -1      1634 1.54372E-02-1.59548E-01 2.04031E+00-3.44885E-02-3.12957E-01-8.48930E-02
 -1      1635 1.01778E-02 3.05309E-01-1.95738E+00-9.39790E-02-1.87209E-01 3.62127E-02
 -1      1636-6.48560E-02 1.91196E-03 2.19672E-01 1.75061E-02-2.36107E-01-1.48083E-02
 -1      1637-4.77536E-04 7.32020E-04-1.83796E+00-1.37656E-03-3.15031E-01-2.93064E-02
 -1      1638-2.41208E-04-2.79043E-04-6.70215E-01-1.01918E-04 1.12155E-01 3.74076E-02
 -1      1639-9.12257E-04-3.89562E-03 1.02029E-01-2.36879E-02-7.96443E-02-6.30426E-02
 -1      1640-1.88572E-02 2.03738E-01-1.45732E+00 2.29350E-02-3.70055E-02 5.57083E-02
 -1      1641-5.87979E-03 1.19049E-03 2.08881E-03-6.04042E-03-8.70400E-04-5.58722E-04
 -1      1642-5.25407E-03 2.09767E-03 4.90062E-04-2.22006E-03-1.29040E-03-7.35806E-05
 -1      1643-2.54422E-03 6.96220E-04 1.25268E-03 9.47149E-05-6.54178E-04-4.75356E-04
 -1      1644-4.00562E-04 4.48490E-04-1.99671E-04 6.22754E-06 1.49193E-04 7.11950E-05
 -1      1645-4.18664E-03 1.13358E-03 2.09836E-03-1.57621E-03 1.32722E-04-2.96203E-03
 -1      1646-2.07535E-03 1.34464E-03-1.31329E-04-4.49631E-03 3.88777E-04 1.36500E-03
 -1      1647-2.10418E-03 7.90224E-04 2.13193E-04-1.62116E-04-5.11007E-04-6.91140E-04
 -1      1648-4.61238E-03 1.17705E-03 2.30459E-03-3.22836E-04-3.72990E-04-4.33089E-05
 -1      1649-8.08838E-04 4.29744E-04 6.15290E-04 1.71791E-04-1.21144E-04 3.54438E-04
 -1      1650-5.90929E-03 1.91062E-03 1.05194E-03-1.91005E-03-8.22827E-04-1.22574E-04
 -1      1651-6.56907E-03 2.15957E-03 2.07058E-03-2.36136E-03-1.23742E-03 2.62772E-03
 -1      1652-4.09636E-03 1.20393E-03 1.94812E-03-1.48123E-03-4.30904E-04-1.38025E-04
 -1      1653-3.45804E-03 3.11500E-04 1.84761E-03-2.12785E-03-4.11718E-04-7.76715E-05
 -1      1654-1.51563E-03 5.69509E-04 8.70334E-04-3.42980E-04-7.29753E-04-4.96441E-04
 -1      1655-7.13609E-03 1.39049E-03 3.49050E-03-4.00326E-03 1.14137E-04 3.25947E-03
 -1      1656-3.19193E-03 1.39386E-03 4.44728E-04-4.02511E-03-9.97265E-04 3.70541E-03
 -1      1657-7.84987E-03 3.21724E-03 1.41530E-03-3.25655E-03-3.67831E-04 3.37649E-04
 -1      1658-6.60966E-03 2.53124E-03 1.48691E-03-4.85032E-03-1.08684E-03-2.40636E-03
 -1      1659-6.30287E-03 2.55886E-03 1.99928E-03-3.53708E-03-9.05792E-04-1.53874E-03
 -1      1660-7.00838E-03 3.26259E-03 7.92450E-04-4.21441E-03 3.19870E-04 4.11037E-04
 -1      1661-4.23377E-03 2.00792E-03 5.92664E-04-5.57273E-03 8.64140E-04-8.53705E-04
 -1      1662-8.45109E-03 2.93099E-03 2.07675E-03-4.90226E-03-2.97856E-04-4.50978E-03
 -1      1663 1.38379E-01 1.27329E-01-4.66557E-01-6.67515E-03 1.11934E-03-3.18048E-02
 -1      1664 1.66665E-02-5.53925E-04-6.34336E-02-2.71548E-03-9.79136E-03 4.09035E-02
 -1      1665 1.99951E-02 4.67404E-02-8.93464E-02-6.65099E-04-3.01929E-02 3.59267E-02
 -1      1666 1.25044E-01 1.39515E-01-4.42832E-01 7.38291E-03-8.53020E-03-2.86008E-02
 -1      1667 1.63411E-02 4.96815E-03-6.46458E-02 2.73349E-03-4.85998E-03 3.84819E-02
 -1      1668 2.74435E-02 4.28543E-02-9.93267E-02 6.52309E-04 3.89892E-03 3.80314E-02
 -1      1669 1.18082E-01 1.10448E-01-3.88501E-01-2.15075E-03-2.67354E-03-3.04368E-02
 -1      1670 5.34892E-03 3.20039E-03-1.47999E-02 2.47999E-04-3.79469E-03-6.01190E-03
 -1      1671 2.92784E-03 3.93180E-03-8.55895E-03-5.88117E-04-9.40877E-04 1.01253E-03
 -1      1672 1.27130E-03-2.17002E-03-3.42698E-03-1.52060E-03-5.61872E-03 1.08705E-02
 -1      1673 3.87073E-02 1.58296E-02-1.26348E-01-5.94328E-03-2.34327E-02 4.13467E-02
 -1      1674 4.58936E-02 7.03451E-02-1.66053E-01 1.04921E-03-2.48340E-02 4.32337E-02
 -1      1675 2.26968E-01 2.29681E-01-7.70221E-01-4.45036E-03 8.32967E-03-3.14384E-02
 -1      1676 1.49283E-02 1.52358E-02-6.55412E-02-9.41864E-03-2.68172E-02 3.18989E-02
 -1      1677 9.03745E-02 9.50430E-02-3.01681E-01 2.28920E-03 3.64708E-03-3.16948E-02
 -1      1678 2.17441E-02 3.00969E-02-8.29042E-02-1.50790E-03 9.77528E-04 2.97267E-02
 -1      1679 1.12285E-02 1.17118E-02-4.73512E-02-5.85506E-03-2.08312E-02 2.86924E-02
 -1      1680 6.67194E-02 6.59521E-02-2.18431E-01 2.35043E-03 2.33856E-03-2.63964E-02
 -1      1681 1.67929E-02 2.09540E-02-5.93492E-02-4.75024E-04-1.78365E-03 2.53964E-02
 -1      1682 2.24759E-03 6.27663E-03-1.81865E-02 3.11064E-04-1.55960E-03 9.60652E-03
 -1      1683 1.74675E-03 1.22208E-03-7.37795E-03 3.49268E-04-1.04577E-03 7.35021E-03
 -1      1684 5.91009E-02 6.09854E-02-1.92660E-01 8.99102E-03-1.96988E-02-2.75056E-02
 -1      1685-3.76111E-03 9.78794E-04-7.44451E-05-1.41758E-03-1.27722E-03-5.24949E-03
 -1      1686 1.10231E-01 1.17078E-01-3.69117E-01 3.46975E-03-1.95516E-02-3.40648E-02
 -1      1687 5.72176E-02 8.03933E-01-1.64917E+00-3.28402E-02-4.03066E-02 6.94992E-02
 -1      1688-2.26120E-02-1.39888E-02 5.12857E-02 2.08652E-03-4.00240E-02-2.79729E-02
 -1      1689-2.36169E-02-2.46960E-02 7.11212E-02 4.77344E-04-4.41246E-02-2.81716E-02
 -1      1690-4.71701E-03-1.22153E-02 2.54686E-02 2.42170E-03-4.09258E-02-3.33003E-02
 -1      1691 2.07867E-01 2.29639E-01-7.44916E-01 8.61756E-03-1.64332E-02-3.91417E-02
 -1      1692 8.40444E-02 8.29660E-02-2.69161E-01 4.09644E-03-1.80380E-02-3.45841E-02
 -1      1693-2.24079E-02-3.53603E-02 9.48528E-02 3.23883E-03-4.26673E-02-2.60842E-02
 -1      1694-2.86305E-02-2.96149E-02 9.44223E-02 7.63596E-04-3.60485E-02-2.04793E-02
 -1      1695-1.95819E-02-1.63723E-02 5.40993E-02 5.60882E-04-3.85051E-02-2.63442E-02
 -1      1696 4.22788E-02 7.28845E-01-1.91457E+00 8.62343E-02-1.65250E-01-1.07656E-01
 -1      1697 7.02940E-02 8.40590E-01-1.98806E+00 8.84216E-02-9.49194E-02-4.93933E-02
 -1      1698-1.58797E-01-8.33319E-01 2.09069E+00 1.65621E-01-1.35142E-01 1.16216E-01
 -1      1699-5.09924E-02-3.20631E-02 1.04986E-01 1.44441E-01-1.81564E-01 5.67849E-02
 -1      1700-3.91570E-02-8.10844E-02 1.78214E-01 1.25980E-01-1.48648E-01-3.95687E-02
 -1      1701-2.97280E-03-4.00944E-04 3.77216E-03 1.74520E-04-2.86239E-03-2.77485E-03
 -1      1702-3.40700E-03-8.06777E-04 4.35334E-03 5.75027E-05-3.43539E-03-3.17202E-03
 -1      1703-6.03164E-03 1.99002E-04 5.35290E-03-6.64759E-04-2.69612E-03-7.82531E-04
 -1      1704-2.94796E-03 1.50600E-03-1.08560E-03-8.19451E-04-1.33354E-03-3.04223E-03
 -1      1705-1.83633E-03 2.05902E-03-2.38036E-03-6.94871E-04-1.18725E-03-2.12176E-03
 -1      1706 9.43713E-03-6.55080E-04-1.67247E-02-1.42094E-03-3.65986E-02-3.90401E-02
 -1      1707 8.64577E-02 8.73223E-02-3.10196E-01 4.45615E-03-3.71288E-02-3.54138E-02
 -1      1708-5.51103E-03-9.89642E-03 2.70741E-02-8.44102E-03-4.49164E-02-1.57973E-02
 -1      1709 7.41258E-02 7.26327E-02-2.64755E-01-2.75831E-02-3.70155E-02-3.12032E-02
 -1      1710-1.00409E-02-9.30281E-03 3.17953E-02-1.52740E-04-2.01648E-02-1.19454E-02
 -1      1711-9.22159E-03-1.23197E-02 3.43060E-02 1.48098E-03-2.23977E-02-1.43910E-02
 -1      1712-8.80430E-03-5.25824E-03 1.72542E-02-3.36062E-04-2.21561E-02-1.52433E-02
 -1      1713-1.00418E-02-1.08292E-03 1.28054E-02 2.64459E-04-1.97935E-02-7.11937E-03
 -1      1714-8.63311E-03-4.53024E-03 1.76609E-02-3.12710E-04-1.82634E-02-9.41680E-03
 -1      1715-1.13576E-02-1.14424E-02 3.46815E-02-1.54808E-03-1.50109E-02-4.90315E-03
 -1      1716-4.91935E-03-3.31436E-03 1.18380E-02-9.64838E-04-1.76946E-02-7.57085E-03
 -1      1717-1.23906E-02-8.20568E-03 3.18129E-02-8.17841E-04-1.49853E-02-5.34837E-03
 -1      1718-3.80041E-02-3.83200E-02 1.23819E-01 9.62770E-04-3.76307E-02-3.81509E-03
 -1      1719-2.75241E-02-1.83563E-02 6.67381E-02-7.00636E-04-3.99080E-02-6.90626E-03
 -1      1720 2.67602E-02 2.56975E-02-8.50649E-02 2.09731E-05-1.15835E-03-1.65996E-02
 -1      1721 7.47587E-03 1.20743E-02-3.00249E-02-2.36120E-03-8.66288E-03 1.14609E-02
 -1      1722 5.71232E-04-2.73949E-03-5.24749E-03-5.20793E-03-8.46463E-03 2.34631E-02
 -1      1723-7.00864E-02-8.43941E-01 1.74471E+00-7.89744E-02-4.11581E-02-8.57274E-02
 -1      1724-1.84363E-02-1.75247E-02 5.78162E-02-1.78672E-03-3.00179E-02-1.99445E-02
 -1      1725-1.64875E-02-2.08795E-02 6.48693E-02 1.05691E-03-2.78764E-02-3.53078E-03
 -1      1726-1.38353E-02-1.19240E-02 3.86991E-02-1.34416E-03-2.95502E-02-6.62622E-03
 -1      1727-1.67380E-02-8.28325E-03 3.30437E-02 9.85354E-04-3.01718E-02-2.28577E-02
 -1      1728-5.61342E-03-7.40987E-03 1.85330E-02 3.03268E-04-1.71011E-02-1.33371E-02
 -1      1729-8.63586E-03-7.35367E-03 2.69375E-02-9.57642E-04-1.69351E-02-5.62660E-03
 -1      1730-5.95812E-03 1.64206E-04 6.78104E-03 8.89151E-04-1.86269E-02-6.69510E-03
 -1      1731-2.54387E-03 2.99274E-04 5.34758E-04-3.99626E-05-1.66353E-02-1.41494E-02
 -1      1732-2.15240E-02-1.87455E-02 6.09443E-02 1.17897E-03-4.68692E-02-3.08732E-02
 -1      1733-4.34210E-02-3.44386E-02 1.23471E-01 8.46742E-04-4.98264E-02-2.87292E-02
 -1      1734-6.00736E-02-7.01937E-02 2.14772E-01-9.94118E-04-5.04046E-02-1.14150E-02
 -1      1735-4.34523E-02-5.34171E-02 1.74807E-01 5.35070E-03-4.64541E-02-1.19593E-02
 -1      1736-1.83790E-01-1.02682E+00 2.27001E+00 1.11132E-01-1.66518E-01 5.52073E-02
 -1      1737-5.45559E-03 1.65452E-03 6.36745E-03 8.51396E-04-1.45700E-02-1.06159E-03
 -1      1738-5.82522E-03 2.92550E-03 2.78506E-03-3.07597E-04-1.40371E-02-4.33421E-04
 -1      1739-7.31754E-03-4.55939E-03 1.75495E-02-1.02211E-03-1.63793E-02-1.11568E-03
 -1      1740-2.31045E-02-1.80355E-02 6.45923E-02-5.34109E-06-3.52735E-02-2.10780E-02
 -1      1741-2.50221E-02-1.08146E-02 5.09259E-02 6.01587E-04-3.75562E-02-1.58689E-02
 -1      1742-3.28200E-02-6.29840E-02 1.48227E-01 3.47782E-02-1.44431E-01-5.37320E-02
 -1      1743-2.59903E-02-1.13103E-01 2.67912E-01-9.22019E-03-1.24743E-01-1.54320E-02
 -1      1744-7.79331E-02-7.67077E-02 2.51564E-01 2.73505E-02-1.14636E-01 2.59191E-02
 -1      1745-7.42496E-02-2.98898E-02 1.53806E-01 4.87613E-02-1.16938E-01-2.09655E-02
 -1      1746-2.88047E-02-3.14741E-02 9.36160E-02-7.10534E-04-4.47424E-02-1.65929E-02
 -1      1747-3.67429E-02-3.92506E-02 1.33243E-01 1.80498E-03-4.15176E-02-1.44247E-02
 -1      1748 3.99109E-03 1.96533E-02-3.05136E-02-2.81529E-03-2.73705E-02-2.36460E-02
 -1      1749-2.09761E-02-1.56107E-02 6.58271E-02-3.12480E-03-2.80176E-02-1.71663E-02
 -1      1750 8.92866E-03 1.28856E-02-4.10941E-02 6.83925E-04-2.72706E-02-2.55353E-02
 -1      1751-1.24029E-02-1.02070E-01 2.19353E-01 3.11826E-02-9.21812E-02-3.17131E-02
 -1      1752-2.74135E-02-2.99655E-03 3.48586E-02 3.10278E-02-6.54336E-02-1.12138E-02
 -1      1753 2.52419E-02 5.98066E-03-8.61867E-02 4.73432E-02-6.13297E-02-1.03331E-02
 -1      1754-3.83770E-04 1.76284E-04-1.72115E-04-1.72303E-05-2.55657E-04-2.99818E-05
 -1      1755-5.65490E-03-4.65393E-03 1.07066E-02-2.54203E-04-3.28118E-02-2.56686E-02
 -1      1756-2.11485E-02-1.68316E-02 6.83294E-02-3.57130E-03-3.17921E-02-2.18467E-02
 -1      1757-2.09169E-02-6.69123E-03 4.29304E-02 7.21971E-03-3.83057E-02-2.57459E-02
 -1      1758-3.98992E-02-3.76279E-02 1.19179E-01-1.60970E-04-4.90680E-02-2.57093E-03
 -1      1759 4.49255E-02 4.22518E-02-1.46170E-01 1.87355E-03-2.16983E-02-2.22104E-02
 -1      1760 5.10387E-02 6.19737E-02-1.96642E-01-1.38291E-02-3.45357E-02-3.09126E-02
 -1      1761-1.03647E-02-6.33359E-03 2.46460E-02-1.32413E-03-2.65769E-02-1.42214E-02
 -1      1762 2.51642E-02 2.22832E-02-7.90514E-02 9.08987E-04-1.74278E-02-1.70393E-02
 -1      1763-1.24717E-02-1.08503E-02 4.09783E-02-2.02177E-03-2.39405E-02-1.59769E-02
 -1      1764-1.17965E-02-1.77816E-03 2.08264E-02 3.98578E-03-2.82528E-02-1.89602E-02
 -1      1765 3.16692E-02 3.74088E-02-1.17567E-01-8.40825E-03-2.55093E-02-2.21500E-02
 -1      1766-5.88535E-02-6.11857E-02 2.00844E-01-2.21351E-03-3.66271E-02-1.09974E-02
 -1      1767-5.00211E-02-4.43295E-02 1.54654E-01-9.32990E-04-4.14488E-02-1.53122E-02
 -1      1768 5.70883E-02 2.17765E-02-1.43052E-01-4.91997E-04-4.16254E-02-3.35485E-02
 -1      1769 6.45007E-02 4.90483E-02-2.02980E-01 7.32537E-04-3.71195E-02-3.39527E-02
 -1      1770-1.22975E-02-1.09174E-02 3.70847E-02-3.06703E-03-3.75230E-02-2.57300E-02
 -1      1771 6.05786E-02 7.17484E-02-2.24534E-01 3.22156E-03-2.78590E-02-2.07399E-02
 -1      1772-2.46242E-02-2.33224E-02 9.28895E-02-7.36931E-03-4.45257E-02-2.71113E-02
 -1      1773 3.59762E-02 4.04360E-02-1.25144E-01 1.36388E-03-2.57455E-02-1.50663E-02
 -1      1774-4.51920E-03 7.40744E-04 2.69878E-03-2.67849E-03-1.88877E-03 7.16039E-03
 -1      1775-3.58915E-02-4.84141E-02 1.36918E-01-2.88989E-03-4.66334E-02-3.10496E-02
 -1      1776-4.74027E-02-5.38254E-02 2.07342E-01-1.22288E-02-2.07338E-01 2.21465E-02
 -1      1777-1.37549E-02-1.36940E-02 4.59439E-02 3.80591E-04-2.07809E-02-2.24595E-03
 -1      1778-9.05050E-03-4.10292E-03 1.70877E-02-1.04014E-03-2.12869E-02-2.20974E-03
 -1      1779 1.23172E-02 1.50412E-02-5.01775E-02-1.23477E-03-1.66801E-02-1.32376E-02
 -1      1780-4.75496E-03-1.08473E-03 1.16527E-02-6.41287E-04-1.60506E-02-1.40688E-02
 -1      1781 1.54017E-02 1.52926E-02-4.77699E-02-2.62333E-03-1.72487E-02-1.21671E-02
 -1      1782-1.20056E-03 1.50721E-03-2.31690E-03-6.35893E-05-5.65519E-03-4.69175E-03
 -1      1783-2.27930E-03 9.57499E-04 9.34820E-04 1.25738E-04-5.63538E-03-3.47837E-03
 -1      1784-1.89319E-03 2.96159E-03-7.91838E-04-2.46864E-04-6.20259E-03-3.20937E-03
 -1      1785-1.93178E-03 2.34981E-03-8.30095E-04-1.48934E-03-6.75949E-03-4.84359E-03
 -1      1786-3.55966E-03-4.43487E-03 1.06860E-02 5.07821E-05-7.69187E-03-4.46452E-03
 -1      1787-4.65735E-03-3.00374E-03 1.06367E-02 1.76499E-04-8.34415E-03-5.01705E-03
 -1      1788-5.65012E-03-6.89873E-03 1.71893E-02-2.66758E-03-3.38121E-02-3.37819E-02
 -1      1789 2.04385E-03 1.46517E-02-3.35276E-02-1.61203E-03-4.34154E-02-3.90196E-02
 -1      1790-2.82211E-02-2.15591E-02 8.08582E-02 6.19032E-03-4.18722E-02-1.49780E-02
 -1      1791-3.28521E-02-3.76410E-02 1.24924E-01 1.27581E-03-4.18035E-02-8.89080E-03
 -1      1792-2.61791E-02-2.34427E-02 7.84461E-02-1.01590E-03-3.05881E-02-4.68194E-03
 -1      1793-4.33436E-03 7.50923E-03 1.36061E-03-7.30545E-03-3.37125E-02-2.21866E-02
 -1      1794-2.84992E-03 2.72323E-03 4.82126E-03-4.87824E-03-2.42087E-02-1.65711E-02
 -1      1795 2.19968E-02 2.32191E-02-7.54329E-02 1.41347E-04-2.14766E-02-1.65177E-02
 -1      1796-1.86197E-03 3.29277E-03-1.47059E-03-1.97711E-03-2.02171E-02 4.74545E-03
 -1      1797 2.39863E-03 7.44063E-03-1.49743E-02-1.76184E-03-1.30638E-02 2.70881E-03
 -1      1798-1.98505E-02-2.36015E-02 6.33740E-02-3.28424E-03-3.40814E-02-1.47102E-02
 -1      1799-2.30390E-02-2.16305E-02 6.97864E-02 3.81991E-04-3.73692E-02 1.22273E-03
 -1      1800-2.75978E-02-2.92961E-02 8.43542E-02-5.22751E-03-3.86596E-02 2.31935E-03
 -1      1801-3.09667E-02-3.14903E-02 1.03567E-01 1.56254E-05-3.33877E-02-1.33188E-02
 -1      1802 1.65637E-02 1.97405E-02-6.30917E-02 1.58545E-03-3.57605E-02-3.32678E-02
 -1      1803-1.17929E-02-9.76056E-03 3.48346E-02 3.54779E-04-1.90838E-02-6.87311E-03
 -1      1804-1.30715E-02-1.23975E-02 3.90669E-02 1.14713E-03-1.90455E-02-8.36992E-03
 -1      1805-1.01015E-02 5.69957E-02-1.03148E-01 7.10792E-02-7.64224E-02-3.45631E-03
 -1      1806-3.27248E-03-1.79042E-03 3.22346E-03-1.53344E-04-2.47328E-02-2.02864E-02
 -1      1807-3.31685E-02-4.77679E-02 1.43165E-01 4.41409E-03-4.50018E-02-3.14220E-03
 -1      1808 1.14105E-02-1.79275E-03-1.32669E-02 7.81030E-04-3.85993E-02-3.16464E-02
 -1      1809-1.32517E-02-1.69995E-02 4.83780E-02 3.53284E-03-3.55732E-02-2.24162E-02
 -1      1810-1.02201E-02-1.23309E-01 2.76774E-01 5.69349E-02-1.76475E-01-4.34272E-02
 -1      1811 4.01452E-03 7.54425E-03-2.15236E-02 1.22830E-03-1.81372E-02-1.82676E-02
 -1      1812 3.37427E-03 1.15597E-02-1.95050E-02-1.52799E-03-1.89371E-02-1.60059E-02
 -1      1813-1.12718E-02-8.76546E-03 3.49375E-02-2.05334E-03-1.95871E-02-1.15279E-02
 -1      1814 1.30587E-01 8.52965E-02-3.89196E-01 2.12955E-02-3.97374E-02-2.88590E-02
 -1      1815 1.01134E-01 1.10878E-01-3.51093E-01 3.21802E-02-1.21352E-02-4.74131E-02
 -1      1816 1.14646E-01 1.34589E-01-4.61195E-01 1.02719E-02-6.23665E-02-5.80715E-02
 -1      1817 3.45360E-02 3.23201E-02-1.19733E-01 1.33283E-03-2.38392E-02-2.52892E-02
 -1      1818-5.09736E-03-7.89058E-03 1.99370E-02-1.11811E-03-2.98471E-02-2.19877E-02
 -1      1819-4.94517E-03-8.28476E-03 1.81089E-02-2.05601E-03-2.75680E-02-2.88919E-02
 -1      1820 3.17403E-02 1.91873E-02-7.07777E-02-3.03443E-02-2.92735E-02-2.60894E-02
 -1      1821 1.07272E-01 1.07670E-01-3.63287E-01-2.22592E-02-5.51815E-02-4.29746E-02
 -1      1822 1.69894E-01 1.46992E-01-4.92519E-01 5.75366E-03-5.76465E-02-2.58681E-02
 -1      1823-2.61989E-03 1.65709E-03-9.33172E-04-2.00153E-04-1.00821E-03-1.41609E-03
 -1      1824-3.96914E-02-4.56343E-01 1.50487E-01-6.68362E-02-1.35320E-01-1.38351E-02
 -1      1825-4.25565E-02-5.19186E-02 1.78381E-01-4.10723E-02-1.68657E-01-4.22485E-02
 -1      1826 9.52298E-02 7.48132E-01-1.88534E+00-4.86016E-02-1.14514E-01 5.59275E-02
 -1      1827-9.81125E-02-8.16514E-01 2.03279E+00-6.68828E-02-1.37653E-01-3.54750E-02
 -1      1828 1.72842E-02 1.86142E-02-6.49059E-02 8.21287E-04-1.77291E-02-1.77739E-02
 -1      1829-1.30009E-03-3.20346E-03 6.61460E-03-1.45383E-03-2.10109E-02-1.51781E-02
 -1      1830-4.27279E-03-6.01302E-03 1.44056E-02-1.09291E-03-2.03169E-02-2.02867E-02
 -1      1831 2.13066E-03-2.01509E-03-1.20058E-04-2.59177E-04-1.90008E-02-1.65415E-02
 -1      1832-2.16742E-03-1.98209E-03 8.18852E-03-1.49618E-03-1.50955E-02-1.33367E-02
 -1      1833-3.80782E-03 2.97919E-03 6.12628E-04-7.19598E-04-1.53502E-02 6.71476E-03
 -1      1834-1.40868E-02-4.37118E-02 6.21119E-02 2.78995E-02-5.16032E-02-3.19703E-02
 -1      1835 3.30834E-02 5.35082E-02-1.31513E-01 4.02809E-04-2.62415E-02 3.57145E-02
 -1      1836 1.64005E-01 1.85544E-01-5.87015E-01 1.23381E-02-1.66388E-02-4.43509E-02
 -1      1837 1.82677E-01 1.95456E-01-6.30276E-01-3.74539E-03 5.24217E-03-4.29937E-02
 -1      1838 3.17663E-02 3.67020E-02-1.13690E-01-8.15492E-03-2.91683E-02-2.83567E-02
 -1      1839-7.80245E-03-1.54260E-03 2.02700E-02-6.36134E-03-3.07119E-02-1.84384E-02
 -1      1840-5.76565E-03-5.79372E-03 2.09664E-02-2.32399E-04-1.37019E-02-5.22261E-03
 -1      1841-5.42243E-03-4.28303E-03 1.40607E-02-8.16915E-04-1.29098E-02-1.20512E-02
 -1      1842-1.42258E-03 3.11809E-03-4.38090E-03-2.58345E-04-1.63509E-02-1.33299E-02
 -1      1843-2.95687E-03-2.99384E-04 4.09854E-03 2.40694E-03-1.56116E-02-6.30253E-03
 -1      1844-1.30155E-03-1.05070E-02 8.00881E-02 3.27324E-02-1.46273E-02-2.56273E-02
 -1      1845-1.11204E-02-5.57642E-02 1.69481E-01 3.98443E-02-1.58614E-02-3.32851E-03
 -1      1846 1.54474E-01 7.50701E-02-3.71247E-01 5.05706E-03-1.40406E-02 2.16817E-02
 -1      1847 1.05403E-01 1.40298E-01-4.99092E-01 3.29425E-02-3.78050E-02-1.25538E-01
 -1      1848 1.80919E-02 2.11481E-02-6.41753E-02-4.24274E-03-2.04473E-02-1.84088E-02
 -1      1849-4.97652E-03-1.83292E-03 1.34969E-02-3.29840E-03-2.21116E-02-1.36336E-02
 -1      1850 1.00981E-02 1.14042E-02-3.59764E-02-2.16532E-04-1.61705E-02-1.31934E-02
 -1      1851-1.33276E-02-2.66452E-02 6.01376E-02 2.62079E-02-5.90187E-02-4.30314E-02
 -1      1852-5.72896E-03 1.63901E-03 5.43250E-03-1.95825E-04-1.40715E-02-7.82313E-03
 -1      1853-3.13379E-02-5.86330E-02 1.44494E-01 3.03985E-03-5.52487E-02-2.62140E-02
 -1      1854-4.27084E-02-3.66672E-02 1.33459E-01 9.72909E-03-6.38064E-02-2.60260E-02
 -1      1855-2.52523E-02-8.75242E-03 5.72002E-02 5.25958E-03-5.52334E-02-3.34784E-02
 -1      1856-1.98019E-02-1.69239E-02 5.24134E-02 8.15517E-03-4.46482E-02-3.25950E-02
 -1      1857-3.53858E-02-2.28806E-02 9.08766E-02-6.46653E-04-3.91208E-02-2.11621E-02
 -1      1858-1.72440E-02-1.05161E-02 4.11525E-02 4.79078E-04-2.62568E-02-1.71203E-02
 -1      1859-2.64973E-02-2.24467E-02 7.56304E-02-1.59057E-03-5.86960E-02-2.84922E-02
 -1      1860-2.22823E-03 3.00248E-02-3.68627E-02 3.07570E-03-3.98166E-02-2.25938E-02
 -1      1861-3.77004E-02-4.76072E-02 1.51868E-01 3.81271E-03-4.55219E-02-1.61791E-02
 -1      1862-5.27524E-02-5.06314E-02 1.64342E-01-1.30913E-03-4.73688E-02-1.96731E-02
 -1      1863 3.20173E-03 6.39897E-03-1.93875E-02-1.33067E-03-2.37568E-02-2.28958E-02
 -1      1864-8.98614E-03-1.09161E-02 3.09705E-02 2.45923E-03-2.63000E-02-1.72841E-02
 -1      1865-1.82357E-03 1.17822E-02-9.22851E-03-1.46017E-03-2.39914E-02-1.85720E-02
 -1      1866 1.44309E-01 1.16848E-01-4.37917E-01 3.70765E-03-3.75848E-02-4.30549E-02
 -1      1867 1.06622E-01 9.91883E-02-3.44540E-01-7.08592E-04-4.14293E-02-1.46030E-02
 -1      1868 8.18101E-02 3.30621E-01-1.18982E-02 1.44417E-01-8.52083E-02-1.17592E-02
 -1      1869 1.52244E-02 1.95789E-02-4.85285E-02 5.13219E-04-1.25098E-02-1.47957E-02
 -1      1870 1.23429E-02 1.88091E-02-4.96839E-02-2.32932E-03-1.33413E-02-7.65973E-03
 -1      1871 2.28572E-03-1.22127E-01 1.90320E-01 9.50788E-02-1.00912E-01-2.22343E-02
 -1      1872-3.94133E-02 1.05107E-01-1.27721E-01 1.17874E-01-7.87184E-02-1.95786E-02
 -1      1873 5.48056E-03 9.05236E-03-2.91159E-02-2.39321E-03-3.24285E-02-3.14005E-02
 -1      1874-5.65650E-03 1.76939E-02-8.19518E-03-2.09937E-03-3.33169E-02-2.65075E-02
 -1      1875-4.14257E-03-4.92589E-04 4.03959E-03-2.38780E-04-2.64141E-03-3.55114E-04
 -1      1876-6.46775E-03 1.07861E-03 4.80359E-03-4.58062E-04-1.30081E-03 2.40906E-03
 -1      1877-9.88906E-02-1.02627E-02 1.80521E-01-2.08191E-02-1.27215E-01 1.71287E-02
 -1      1878 7.54394E-03 4.93647E-03-2.23151E-02-2.26754E-03-1.47862E-02-1.13883E-02
 -1      1879-5.41167E-03-8.18840E-03 2.19382E-02 6.49794E-04-1.52774E-02-1.20591E-02
 -1      1880-4.01184E-02-4.20378E-02 1.32463E-01-1.54631E-03-4.00027E-02-1.94461E-02
 -1      1881-4.36327E-02-4.86467E-02 1.39829E-01 5.01668E-03-5.32911E-02-1.67073E-02
 -1      1882-2.27732E-03-7.23334E-04 3.85863E-03 6.67641E-04-8.57183E-03-5.46234E-03
 -1      1883 1.39383E-03 6.19661E-04-4.98628E-04-9.10088E-04-8.35935E-03-6.44024E-03
 -1      1884-1.12313E-03-8.10651E-04 1.76258E-03-4.80236E-04-7.51032E-03-8.06866E-03
 -1      1885 1.64972E-03 4.15314E-03-9.68905E-03-5.03097E-04-7.75003E-03-6.83862E-03
 -1      1886-1.65923E-02-2.43935E-02 7.33554E-02 3.16172E-03-4.33445E-02 2.45736E-03
 -1      1887-5.18889E-02-5.42079E-02 1.67541E-01-2.32799E-03-4.44719E-02 6.91836E-03
 -1      1888-5.75766E-02-4.55544E-02 1.61192E-01-3.38293E-03-5.65758E-02-6.18071E-03
 -1      1889-7.67340E-02-1.00287E-01 3.01067E-01-4.10345E-03-5.76592E-02-7.66315E-04
 -1      1890-1.79322E-02-2.94018E-02 7.69979E-02-6.99902E-04-5.43391E-02 9.30897E-03
 -1      1891 6.10682E-03 2.92146E-02-7.01200E-02-6.60928E-04-5.89522E-02 6.28813E-03
 -1      1892 2.46740E-02 2.22789E-02-7.87912E-02 5.88239E-04-3.79268E-02-3.77249E-02
 -1      1893-1.96362E-02-7.60713E-03 3.75503E-02-3.30509E-03-5.39324E-02-2.39798E-02
 -1      1894-2.76107E-02 1.39683E-02 2.51073E-02 1.58302E-02-6.04413E-02-3.37643E-02
 -1      1895-3.31829E-02-2.30568E-02 1.00263E-01 1.08840E-02-7.65660E-02-9.17167E-03
 -1      1896 3.72010E-02 2.36857E-02-1.26998E-01-5.36867E-03-2.94563E-02 3.82908E-02
 -1      1897-1.41073E-02-1.15902E-02 3.99273E-02 2.37867E-04-2.82071E-02 8.07708E-04
 -1      1898-1.02604E-02-1.14674E-02 3.03500E-02-2.30308E-03-2.51040E-02-1.19014E-02
 -1      1899-1.91555E-02-1.89759E-02 6.22216E-02-2.34893E-04-2.48054E-02-1.01582E-02
 -1      1900-1.88560E-02-1.84726E-02 5.39777E-02-4.30697E-03-2.81409E-02 1.54416E-03
 -1      1901-1.31627E-02-1.46428E-02 4.81960E-02 6.17737E-04-2.17537E-02-5.60078E-03
 -1      1902-1.72878E-02-1.83360E-02 5.39577E-02-1.90624E-03-2.34828E-02-9.89295E-03
 -1      1903 7.46021E-02 7.77579E-02-2.34436E-01-1.77585E-02-7.18260E-03-2.73795E-03
 -1      1904 7.66301E-02 1.08662E-01-3.13538E-01 1.95075E-02 8.11400E-03-5.64593E-02
 -1      1905 1.33252E-01 1.22139E-01-4.64556E-01 4.38659E-03-4.44000E-02-6.27616E-02
 -1      1906 1.14537E-01 8.44679E-02-3.25427E-01 1.02578E-02-1.77188E-02-3.85049E-03
 -1      1907 7.09580E-03 1.44048E-02-3.27415E-02 1.55568E-02-4.25035E-02-4.22052E-02
 -1      1908-5.20819E-03-1.24927E-02 5.68176E-02 1.37385E-02-4.28842E-02-2.30751E-02
 -1      1909 6.33292E-03-3.62655E-03-5.44741E-03 8.97215E-04-2.90647E-02-2.44299E-02
 -1      1910-5.77829E-02-1.57808E-01 3.92601E-01-5.60872E-02-1.24950E-01 3.15982E-02
 -1      1911-1.96205E-03 2.14670E-02-2.22483E-02-2.51939E-03-3.68393E-02-3.13281E-02
 -1      1912 6.17243E-03 4.05182E-01 6.76267E-02-2.34956E-01-3.56520E-01-5.28165E-02
 -1      1913-9.97086E-03-2.73649E-03 1.93172E-02 2.07336E-03-2.48278E-02-8.58744E-03
 -1      1914-3.85364E-03-1.34522E-03 8.21746E-03-1.56212E-04-1.21743E-02-1.80881E-03
 -1      1915-9.47687E-03-3.75579E-03 1.56024E-02-1.40407E-03-8.45966E-03-1.48208E-03
 -1      1916 8.27013E-03 2.32562E-03-1.33297E-02-9.21550E-04-1.41531E-02-1.19724E-02
 -1      1917-3.51998E-03-4.64004E-03 1.59705E-02-1.79488E-03-1.19499E-02-9.80672E-03
 -1      1918 4.09096E-03 5.54836E-03-2.24096E-02 1.43637E-03-1.48433E-02-1.13498E-02
 -1      1919-4.61979E-02-5.88887E-02 1.72377E-01-1.15748E-05-4.15880E-02-7.33049E-03
 -1      1920-1.88958E-02 6.15352E-04 2.56524E-02 4.21736E-03-3.86450E-02 1.90136E-03
 -1      1921-2.86292E-02-1.58959E-02 7.50270E-02-1.08651E-03-3.23274E-02 6.11201E-04
 -1      1922-1.81354E-02-9.55955E-03 4.32707E-02 3.35099E-03-3.42910E-02-1.14764E-02
 -1      1923-2.20397E-02-2.62492E-02 8.43503E-02 9.60082E-04-3.09730E-02-7.41912E-03
 -1      1924 2.13844E-01 1.75744E-01-5.90078E-01-1.46218E-02-6.29490E-02-5.31056E-02
 -1      1925-6.90214E-03-3.97855E-03 1.92505E-02-7.53255E-04-1.73817E-02 1.63289E-04
 -1      1926-4.97451E-03 4.36976E-03-3.17375E-03 8.90831E-04-2.01025E-02 1.22006E-03
 -1      1927-7.11231E-04 4.69247E-05 1.86870E-04-9.09737E-05-1.39250E-03-1.88102E-03
 -1      1928-4.29522E-02-3.46863E-02 1.30549E-01-2.98656E-04-5.03503E-02-1.54167E-02
 -1      1929-2.17872E-02 9.65352E-04 2.85542E-02 1.82394E-03-5.80802E-02-1.11861E-03
 -1      1930-2.97907E-02-3.88921E-02 1.16574E-01 1.23718E-03-5.23011E-02 2.47520E-03
 -1      1931-3.75502E-02-2.16218E-02 9.57532E-02 3.72706E-03-5.00062E-02-1.79528E-02
 -1      1932-7.32224E-02-6.68511E-02 3.21048E-01-2.63305E-02-1.68363E-01 3.80821E-02
 -1      1933-3.87762E-03-1.07877E-01 1.87168E-01-2.77553E-02-7.02881E-02-1.74668E-02
 -1      1934-4.37431E-03-2.19522E-02 2.73281E-02-1.66418E-02-1.02689E-01-3.47745E-02
 -1      1935-9.35083E-02-4.41618E-02 1.96575E-01 1.94844E-03-1.03109E-01 4.26240E-03
 -1      1936-9.31687E-02-1.14360E-01 3.59863E-01 3.83140E-03-9.61208E-02 2.77566E-02
 -1      1937-3.29235E-02-3.94000E-02 1.14731E-01-5.16936E-04-3.96738E-02-2.12015E-02
 -1      1938 5.62404E-04 1.57758E-03-4.57147E-03-8.03488E-04-1.31965E-02-8.41716E-03
 -1      1939-8.28911E-03-4.90572E-03 1.72629E-02-7.12008E-04-1.09243E-02-8.70694E-03
 -1      1940-5.08433E-03-1.46030E-03 8.12142E-03-3.03347E-04-1.08135E-02-9.06284E-03
 -1      1941-7.10391E-03-1.01341E-02 2.46597E-02 3.69873E-04-1.25311E-02 1.36697E-03
 -1      1942-8.82616E-04 2.26934E-03-1.52354E-03-6.69153E-05-1.07929E-02-2.27513E-03
 -1      1943-8.58429E-03 2.65644E-03 7.62832E-03-1.20917E-03-1.19632E-02-1.92943E-03
 -1      1944-1.11322E-02-1.08173E-02 3.21780E-02-1.53772E-03-1.02862E-02 1.11566E-03
 -1      1945 6.95744E-04 2.81867E-03-4.72383E-03 1.74477E-04-1.34780E-02-1.07494E-02
 -1      1946 6.61920E-02 3.14839E-02-5.85708E-02 5.66265E-02 8.61953E-04-4.68145E-02
 -1      1947-3.92627E-02-4.74630E-02 1.34388E-01 2.49559E-03-3.86469E-02 1.82552E-03
 -1      1948-1.55898E-02-1.31185E-02 6.03444E-02-8.96271E-03-3.82384E-02-2.75859E-02
 -1      1949 4.33026E-02 5.03208E-02-1.56500E-01-1.56750E-02-4.09740E-02-4.29894E-02
 -1      1950 4.48980E-02 5.51799E-03-4.20136E-02 5.43419E-02-1.95975E-02-2.51170E-02
 -1      1951-2.69831E-02-4.68008E-02 1.24670E-01-2.96396E-04-6.14267E-02-2.13751E-03
 -1      1952-7.01403E-02-8.77386E-02 2.60732E-01 4.49259E-03-6.94773E-02-9.02528E-03
 -1      1953 9.63499E-03 9.87449E-03-2.88294E-02-1.89665E-04-1.60127E-02-9.14332E-03
 -1      1954 5.98127E-04 3.69239E-03-9.82655E-03 3.43023E-04-8.41541E-03-8.32922E-03
 -1      1955 6.19744E-02 8.50714E-02-2.31206E-01 2.15766E-03-2.88682E-02-4.30581E-02
 -1      1956-2.54201E-02-1.80214E-01 3.66954E-01-3.86039E-02-1.15016E-01 1.20080E-02
 -1      1957-7.78672E-02-1.29851E-01 3.76776E-01-5.54414E-03-1.22550E-01 5.09510E-02
 -1      1958-2.53675E-02-2.19632E-02 8.12143E-02 1.40875E-03-4.07605E-02 4.10456E-03
 -1      1959-1.81537E-02-1.17967E-02 4.50557E-02-2.05955E-03-3.91420E-02-3.04292E-04
 -1      1960 2.78599E-03-3.36170E-06-6.93209E-03-2.41396E-03-1.50796E-02 2.13449E-03
 -1      1961-4.52334E-03-7.58136E-03 1.36014E-02 3.16993E-03-1.18286E-02 7.45640E-03
 -1      1962 1.29459E-03 3.00221E-03-7.33523E-03-3.90426E-04-6.04639E-03-5.98807E-03
 -1      1963 1.13502E-01 1.16997E-01-3.99128E-01 4.91977E-03-5.07074E-02-5.55875E-02
 -1      1964 8.99172E-02 9.72098E-02-3.35865E-01-3.43940E-02-4.55551E-02-4.49850E-02
 -1      1965 1.95916E-02 1.17094E-02-4.41573E-02-1.17095E-02-4.41405E-02-2.05097E-02
 -1      1966 4.06882E-02 2.70170E-02-1.08170E-01-1.62428E-03-3.36032E-02-3.80605E-02
 -1      1967 8.71807E-04 3.04511E-03-6.69255E-03-8.01156E-04-1.92783E-02 8.91653E-03
 -1      1968-4.84773E-02-6.05644E-02 1.86017E-01 6.53990E-04-5.65534E-02-8.20800E-03
 -1      1969-3.89731E-02-3.69301E-02 1.13559E-01 7.00111E-03-6.31419E-02-1.15404E-02
 -1      1970-2.76308E-02-1.13723E-02 5.74356E-02-4.52072E-03-5.29809E-02 2.35272E-02
 -1      1971-2.13232E-03-1.69733E-03 5.71070E-03-5.61071E-04-5.25387E-03-5.29776E-03
 -1      1972-4.42858E-03-1.12936E-03 7.72776E-03-3.73875E-04-5.08387E-03-3.04388E-03
 -1      1973-1.37067E-03 1.87806E-03-1.70544E-03-5.29550E-04-6.13230E-03 3.90957E-04
 -1      1974-4.60650E-03 5.80826E-04 3.96236E-03-3.86469E-04-5.57081E-03-2.54493E-03
 -1      1975-2.47134E-03-5.19746E-04 3.38489E-03 4.50095E-05-4.73486E-03 3.62541E-04
 -1      1976-3.15752E-02-3.11501E-02 1.02131E-01 1.62110E-03-3.47567E-02-1.70459E-02
 -1      1977-2.35594E-02-6.87890E-02 1.92349E-01 2.64545E-02-8.87384E-02-4.48565E-02
 -1      1978-6.39295E-03-3.37596E-04 7.23873E-03-1.52274E-04-3.96230E-03 1.92228E-03
 -1      1979-2.67471E-02-2.91499E-02 8.89779E-02-2.25109E-03-3.10541E-02-1.40724E-02
 -1      1980-1.86118E-03 3.18644E-03-2.27132E-03-4.99357E-04-1.46564E-03 1.40548E-03
 -1      1981-2.09996E-03 1.04262E-03-7.99691E-04-2.07252E-03-3.01597E-03 3.74098E-03
 -1      1982-2.63844E-03 1.24104E-05 2.44044E-03 8.63408E-05-3.30434E-03 4.03278E-03
 -1      1983-2.53459E-03-1.05808E-02 1.22603E-02 3.08064E-03-1.10762E-02 4.72613E-02
 -1      1984 6.56427E-03 1.20524E-02-3.69706E-02-7.33686E-03-2.09757E-02 2.24933E-02
 -1      1985 1.46154E-02 1.89879E-02-6.06884E-02-1.61318E-03-1.87562E-02 1.48906E-02
 -1      1986-7.49694E-03-1.20371E-02 2.65815E-02 4.63069E-04-1.50521E-02 5.60399E-02
 -1      1987 2.34434E-02 2.80749E-02-8.79744E-02 1.32128E-03-2.49483E-02 1.69891E-02
 -1      1988 3.15276E-02 3.35461E-02-1.16081E-01 1.79977E-03-3.05820E-02 1.93186E-02
 -1      1989-1.04338E-02-1.72636E-02 3.79764E-02-4.62556E-04-2.27702E-02 6.49378E-02
 -1      1990-1.22974E-02-3.29164E-03 2.42838E-02 3.00808E-04-2.31613E-02-1.24894E-02
 -1      1991 8.99534E-02 7.53936E-02-2.62664E-01-9.18912E-05-2.60340E-02-1.90619E-02
 -1      1992-2.17349E-02-1.12619E-02 5.29085E-02 9.11742E-04-3.11867E-02-1.69514E-02
 -1      1993-6.37807E-02-4.03229E-02 1.51570E-01 7.52896E-03-7.09885E-02-1.81765E-02
 -1      1994-3.85169E-02-5.65949E-02 1.77705E-01 1.70449E-02-6.89763E-02-2.57892E-02
 -1      1995 3.22313E-03 5.62560E-03-1.50833E-02 5.28004E-04-9.48950E-03-8.93363E-03
 -1      1996-1.73108E-02-1.88012E-02 5.62812E-02-2.61024E-03-1.94517E-02-3.47407E-03
 -1      1997-2.13085E-02-9.25021E-03 4.50125E-02-1.07132E-04-2.11893E-02-1.43758E-03
 -1      1998-2.63777E-03-1.22487E-04 3.20925E-03 3.65647E-04-8.62941E-03-1.53496E-03
 -1      1999-3.08300E-02-2.75625E-02 9.17319E-02 1.14692E-03-4.36001E-02-2.28404E-02
 -1      2000 1.48608E-03 2.15116E-03-6.03089E-03-9.91392E-04-4.31481E-03-4.69609E-03
 -1      2001 3.09285E-03 3.24709E-03-1.00444E-02-6.77815E-04-5.73333E-03-4.86482E-03
 -1      2002-3.74015E-02-1.04193E-01 2.55303E-01 9.45469E-03-8.46985E-02-1.18272E-02
 -1      2003-7.04344E-02-8.64464E-02 2.57270E-01-3.18364E-03-5.17566E-02 1.24617E-02
 -1      2004-8.49713E-02-7.50666E-02 2.55534E-01 8.28478E-04-5.24972E-02 6.81841E-03
 -1      2005-1.57338E-02-1.15674E-02 3.81891E-02-1.80971E-03-1.82430E-02 2.97592E-03
 -1      2006-6.11182E-02-4.09787E-02 1.63964E-01 7.08234E-04-4.43995E-02-1.82450E-02
 -1      2007-7.15107E-03-5.90673E-03 1.89648E-02-3.90929E-04-1.09136E-02-1.89772E-03
 -1      2008 4.23203E-02 5.76804E-02-2.13441E-01-3.40995E-02-1.91767E-02-1.96678E-02
 -1      2009-4.87043E-02-7.89344E-02 2.03288E-01 2.57918E-03-6.44014E-02-1.58050E-02
 -1      2010-4.34300E-02-3.43586E-02 1.46720E-01 4.40675E-03-4.27417E-02-2.63778E-02
 -1      2011-3.57460E-02-3.85573E-02 1.07217E-01 1.23733E-03-4.82351E-02-3.48229E-02
 -1      2012 5.79344E-02 7.45521E-02-2.28535E-01 2.60235E-03-4.22580E-02-4.03777E-02
 -1      2013 2.16803E-02 1.90337E-02-6.82996E-02 1.86108E-03-5.02465E-03-1.76299E-02
 -1      2014 8.95419E-02 1.20407E-01-4.20028E-01 8.97949E-03-4.42271E-03-5.07968E-02
 -1      2015 1.51816E-01 7.76789E-01-1.86174E+00 1.38105E-01-6.77299E-02-1.92691E-01
 -1      2016 2.28741E-01 6.94237E-01-1.69610E+00 1.85659E-01 5.44501E-02-2.48861E-01
 -1      2017 1.60797E-01 1.63397E-01-5.60712E-01-5.84738E-04-4.06996E-02-2.96744E-02
 -1      2018 1.46966E-01 1.24044E-01-4.56234E-01-3.76960E-02-1.94070E-02-6.11344E-02
 -1      2019 1.58880E-01 1.37191E-01-4.96634E-01-1.75706E-02-4.30849E-02-1.60550E-02
 -1      2020-6.43516E-02-9.26128E-02 2.63354E-01-6.12909E-03-5.84395E-02 1.43159E-02
 -1      2021-2.25432E-02-1.23157E-02 4.89167E-02-5.72472E-04-3.38423E-02-1.48974E-02
 -1      2022-2.67698E-02-2.78396E-02 9.11985E-02 6.60030E-04-3.23018E-02-1.22145E-02
 -1      2023-2.83815E-02-3.73502E-02 1.27548E-01 5.92690E-03-5.46991E-02-3.03849E-02
 -1      2024-1.64218E-02-1.64417E-02 5.44664E-02 2.42092E-04-2.36529E-02-8.91145E-03
 -1      2025-2.96526E-02-2.69284E-02 8.80150E-02-3.24601E-03-4.88574E-02 2.11005E-02
 -1      2026 2.52781E-05-1.80615E-03 2.00295E-03-3.38272E-04-6.85607E-03-6.17252E-03
 -1      2027-9.53504E-03-1.02864E-02 2.82314E-02-1.81313E-03-1.32936E-02-5.67494E-03
 -1      2028-2.76769E-03 2.34888E-04 1.28177E-03-1.27714E-03-8.78888E-04 1.28692E-03
 -1      2029-2.46842E-02-2.86089E-02 8.15808E-02 6.65951E-04-2.85888E-02 6.25594E-04
 -1      2030-3.12382E-02-4.40920E-02 1.40768E-01 4.15424E-03-4.52251E-02-2.33547E-02
 -1      2031 3.25585E-02 5.31670E-02-1.44320E-01 7.55811E-03-4.26104E-02-3.15601E-02
 -1      2032-2.31243E-02-1.71471E-02 6.80541E-02-1.20889E-03-4.79067E-02 5.12293E-03
 -1      2033-6.98306E-03 1.80251E-03 8.06568E-03 1.65100E-03-2.60459E-02 1.66567E-03
 -1      2034-1.19518E-02-1.60356E-03 2.24004E-02 2.46854E-03-3.53751E-02 9.09271E-04
 -1      2035-4.80556E-02-3.72974E-02 1.36293E-01-1.86522E-03-4.96775E-02 8.51498E-03
 -1      2036-5.54524E-03-4.25991E-03 1.34738E-02-1.47040E-03-6.83517E-03-4.61037E-04
 -1      2037 6.32407E-02 3.64190E-02-1.71500E-01-1.35564E-03-3.48255E-02-3.12940E-02
 -1      2038-9.72091E-02-3.11588E-01 1.42975E-01 3.37890E-01 1.46040E-01 2.96058E-02
 -1      2039-1.63512E-01-6.46417E-01 1.58354E+00 2.39404E-01 5.76071E-02 2.79547E-01
 -1      2040 1.56330E-01 7.20538E-02-2.29664E-01 1.97373E-01 4.06233E-02 2.51653E-03
 -1      2041-8.25168E-02-5.19097E-02 2.16904E-01-8.18560E-03-7.99181E-02 2.38996E-02
 -1      2042-1.62154E-03 1.71369E-03-1.69776E-03-3.48650E-04-3.87850E-03-1.81220E-03
 -1      2043-1.23659E-02 2.42644E-03 1.26624E-02 2.99243E-03-2.80844E-02 1.60982E-03
 -1      2044-1.59431E-02-6.08877E-03 3.72431E-02-1.49200E-03-2.42252E-02-3.46047E-04
 -1      2045-3.05046E-02-3.40171E-02 1.02226E-01 8.02233E-04-3.20727E-02-4.00455E-03
 -1      2046-2.56264E-02-1.49095E-02 5.98074E-02-5.84655E-04-2.82378E-02 6.78198E-03
 -1      2047-1.45767E-02-1.20870E-02 4.26333E-02 1.03108E-04-2.39128E-02 1.59985E-03
 -1      2048-2.29922E-02-2.52560E-02 6.78434E-02-1.68651E-03-2.21756E-02 4.27213E-03
 -1      2049-1.16166E-02-1.56726E-02 4.11945E-02 8.40248E-04-2.50472E-02 4.32678E-03
 -1      2050-1.13154E-03 3.62593E-03-4.15192E-03-1.73572E-03-1.16133E-02 3.95613E-03
 -1      2051-2.06199E-02-2.38095E-02 6.82958E-02-2.03905E-04-2.97127E-02-1.60155E-02
 -1      2052 1.06814E-01 1.01295E-01-3.46502E-01-1.42620E-02-3.17413E-02-3.49454E-02
 -1      2053 1.69359E-01 1.62220E-01-5.77870E-01-1.24259E-02-1.66206E-02-4.60377E-02
 -1      2054-4.24101E-03 1.70186E-03 9.14390E-04-4.90602E-04-1.10497E-03-1.28870E-03
 -1      2055-3.11282E-03 1.25813E-03 3.75694E-04 2.16783E-04-3.68194E-03 2.72371E-03
 -1      2056-4.91142E-03 6.50677E-04 5.82579E-03-1.05615E-03-1.67625E-02-1.18018E-03
 -1      2057 5.80298E-02 4.69461E-02-1.69955E-01-3.82595E-04-2.08639E-02-1.56445E-02
 -1      2058 3.11039E-02 2.38790E-02-8.85360E-02-2.38287E-04-1.63859E-02-1.21442E-02
 -1      2059-2.56837E-04 1.18927E-04 3.84573E-05 3.10910E-05-4.83579E-03-5.55339E-03
 -1      2060 4.13012E-04 2.43915E-03-6.31734E-03 4.02448E-04-7.13843E-03-6.51574E-03
 -1      2061-1.57024E-03 8.94339E-04-4.41807E-05-2.28451E-03-8.35041E-03-3.40576E-03
 -1      2062-2.24810E-02-1.79549E-02 7.43000E-02-5.31767E-03-3.69950E-02 4.13302E-03
 -1      2063-2.06487E-02-1.89637E-02 6.85325E-02-5.32053E-04-3.42471E-02 3.28360E-03
 -1      2064-1.33830E-02-4.91128E-03 2.38138E-02-3.53953E-04-2.56307E-02-1.07002E-02
 -1      2065 5.59253E-03 7.49651E-02-2.49188E-01 1.53043E-01-6.15339E-02-5.09457E-03
 -1      2066-6.29645E-02-6.66212E-02 2.12953E-01-4.69537E-03-5.13070E-02-5.09584E-03
 -1      2067-2.21777E-02-3.36908E-02 9.09872E-02-8.72914E-04-4.57101E-02 3.35452E-03
 -1      2068-3.84233E-03-7.23346E-03 1.35371E-02 1.61067E-04-1.35174E-02 7.63700E-03
 -1      2069-2.05291E-02-2.00444E-02 6.55819E-02 7.79230E-04-2.56674E-02-1.19740E-02
 -1      2070-7.80496E-02-1.54862E-01 4.13960E-01-2.64205E-02-6.84565E-02 2.60015E-02
 -1      2071-5.64606E-02-2.61722E-02 1.38864E-01-2.17405E-02-1.02281E-01 2.24429E-02
 -1      2072-1.14442E-03 1.97793E-03-2.26010E-03 2.20668E-05-4.05761E-03-4.34708E-03
 -1      2073-4.00664E-02-7.86093E-02 2.14688E-01 6.73958E-03-6.39059E-02-2.18334E-02
 -1      2074 7.32728E-02 6.49061E-02-2.28019E-01-3.34729E-03-2.13451E-02-7.40386E-03
 -1      2075 4.47264E-02 3.60225E-02-1.31995E-01-2.34189E-03-1.78864E-02-8.73178E-03
 -1      2076-2.12210E-02-4.02174E-02 7.48098E-02 1.61446E-02-5.75157E-02-2.53381E-02
 -1      2077 2.13597E-02 1.55477E-02-5.61090E-02-6.67869E-04-1.27858E-02-8.72536E-03
 -1      2078 7.63020E-03 1.12179E-02-4.31888E-02-2.35685E-03-1.05756E-02-1.10442E-02
 -1      2079-2.84824E-04 6.76618E-04-1.45908E-03 8.89571E-05-1.13273E-03-1.56118E-03
 -1      2080-3.14880E-03 6.89856E-04 1.61911E-03-1.88999E-04-1.37772E-03-2.14473E-03
 -1      2081-7.04703E-04 8.63399E-04-1.00601E-03-1.02482E-04-2.12360E-03-2.84959E-03
 -1      2082-4.05793E-04 1.06601E-03-1.78269E-03-4.59653E-04-1.96090E-03-2.01008E-03
 -1      2083-1.09579E-04 9.98912E-04-1.63574E-03-6.58038E-05-8.35995E-04-5.89965E-04
 -1      2084-2.19790E-02-3.21765E-02 8.61458E-02 1.00322E-02-5.37814E-02-1.28822E-02
 -1      2085-4.10371E-02-2.38738E-02 1.05255E-01 1.98310E-03-3.50932E-02-5.39126E-03
 -1      2086 4.01543E-02 4.07199E-02-1.39473E-01-9.89351E-03-3.71485E-02 7.99446E-03
 -1      2087-4.29978E-02-4.21383E-02 1.26106E-01-6.67807E-03-3.90907E-02 1.98548E-02
 -1      2088-7.17694E-02-7.65832E-02 2.47186E-01-6.69281E-04-3.69903E-02 4.50320E-02
 -1      2089 2.26849E-03 6.32686E-03-7.63720E-03-1.25077E-04-3.46578E-02 3.21821E-02
 -1      2090-3.17899E-02-1.44635E-02 6.29649E-02 1.07775E-03-6.68420E-02 1.95903E-03
 -1      2091 9.60402E-03-2.42618E-03-3.37322E-02-7.35462E-03-7.07704E-02-6.72666E-03
 -1      2092-4.06626E-02-1.01190E-01 2.46319E-01-8.10737E-03-5.80037E-02 1.83592E-02
 -1      2093-9.36415E-02-9.59062E-02 3.36084E-01-1.05290E-02-5.84338E-02 3.52807E-02
 -1      2094-2.80507E-02-2.72487E-02 9.19088E-02-4.28390E-04-2.13317E-02 5.93273E-02
 -1      2095-7.64617E-02-5.87063E-02 2.13710E-01 3.54512E-04-6.83832E-02-2.70854E-03
 -1      2096-1.85544E-03-1.38997E-03 4.98928E-03-3.11585E-04-5.48936E-03-4.35509E-03
 -1      2097 8.52600E-02 1.05291E-01-2.95458E-01 1.13888E-02-2.96639E-02-3.11834E-02
 -1      2098 1.09994E-03 3.66795E-04-1.22339E-02 4.31650E-04-1.12405E-02-9.77860E-03
 -1      2099-3.14939E-03-3.89292E-03 1.24420E-02-1.03140E-05-1.15674E-02-8.41142E-03
 -1      2100-2.01909E-03-5.74292E-03 9.87065E-03-4.90056E-04-1.12814E-02 3.60357E-03
 -1      2101 3.90404E-03 2.71420E-03-9.60992E-03-1.43564E-03-8.53546E-03-1.69788E-02
 -1      2102-3.76153E-03 5.59736E-04 1.93572E-03 2.75022E-04-3.49524E-03-1.06587E-03
 -1      2103-2.30992E-02-1.39152E-02 5.32463E-02-6.77861E-03-2.13856E-02 1.59420E-02
 -1      2104-8.92876E-03-5.85678E-03 1.97334E-02-2.68286E-03-2.02316E-02 5.70020E-03
 -1      2105 3.65644E-03 5.78503E-03-1.80096E-02 3.45613E-04-7.47551E-03-5.81352E-03
 -1      2106 1.92829E-03 6.33795E-04-7.52578E-03-9.85998E-04-7.38113E-03-7.23594E-03
 -1      2107-9.09021E-04 3.35985E-05 5.85251E-04-1.85589E-06-1.06767E-03-1.51997E-03
 -1      2108-5.02802E-03-1.99363E-03 8.80606E-03-1.02303E-03-1.86089E-02 7.02577E-03
 -1      2109-2.22765E-02-8.13189E-03 4.80330E-02-1.62735E-03-2.14076E-02 1.62170E-02
 -1      2110-1.92066E-02-1.89297E-02 5.55267E-02-3.62239E-03-1.60807E-02 1.07717E-02
 -1      2111-9.90285E-04 2.95664E-03-2.78122E-03-6.30180E-04-8.78533E-03 8.02191E-04
 -1      2112-6.99319E-03-1.58953E-02 3.66553E-02 7.00875E-03-3.91780E-02 7.97127E-03
 -1      2113-1.88562E-03 1.65869E-03-1.33691E-03-3.40484E-04-4.13853E-03-3.10032E-03
 -1      2114-4.25162E-03 2.15662E-04 3.77012E-03-9.00875E-04-6.81999E-03 2.49683E-03
 -1      2115-7.83714E-03 2.31200E-02-3.76213E-02-8.16980E-04-6.70650E-02 2.38267E-03
 -1      2116-6.76844E-02-4.31959E-02 2.09241E-01-2.51725E-02-4.87874E-02 5.34493E-02
 -1      2117-8.52879E-04 1.77726E-02-2.48627E-02 2.43533E-03-2.84688E-02 9.30000E-03
 -1      2118-1.12578E-02-1.98323E-02 4.70900E-02 4.41732E-06-2.79020E-02 9.09957E-03
 -1      2119 9.31335E-02 7.91189E-02-2.79955E-01-1.78265E-02-2.17279E-02-8.12955E-03
 -1      2120 3.05641E-03 2.07422E-03-8.45086E-03-2.14116E-04-5.69170E-03-4.71143E-03
 -1      2121-3.63697E-02-2.47333E-02 1.09391E-01 3.93754E-03-3.87975E-02 2.62652E-02
 -1      2122 2.90596E-02 6.45605E-02-1.48704E-01-4.25176E-03-2.88809E-02 2.18234E-02
 -1      2123-3.19191E-02-2.14094E-02 8.16577E-02 4.35645E-04-3.16576E-02-3.34345E-03
 -1      2124 6.91729E-02 5.90203E-02-2.18404E-01-1.27347E-02-2.58438E-02-1.90378E-02
 -1      2125 3.86487E-02 3.43910E-02-1.23708E-01-7.44520E-03-1.99786E-02-1.35998E-02
 -1      2126 7.21834E-03 1.18068E-02-2.77901E-02-1.36589E-03-6.07666E-03 5.01230E-03
 -1      2127 5.09649E-03 6.91405E-03-2.06802E-02 6.30843E-05-8.02102E-03 1.04347E-02
 -1      2128-1.05251E-03-4.30269E-03 5.45723E-03-3.42965E-03-9.51537E-03 1.78200E-02
 -1      2129-1.80385E-02-6.50979E-03 3.44809E-02-1.07792E-03-1.75608E-02 6.58582E-03
 -1      2130-3.54309E-03-3.00332E-03 8.85049E-03-3.31439E-04-8.95448E-03-7.11516E-03
 -1      2131-4.55484E-02-3.87513E-02 1.35403E-01-3.09428E-04-3.75662E-02 1.09255E-02
 -1      2132-3.65751E-02-2.76630E-02 8.96638E-02-6.83613E-03-2.55441E-02 1.76670E-02
 -1      2133-7.33011E-03-6.80273E-03 1.53452E-02-2.75128E-03-2.66219E-02 4.82909E-03
 -1      2134-3.83773E-03-9.11056E-03 2.20400E-02 2.30911E-03-1.64402E-02 6.30136E-03
 -1      2135-2.10190E-02-3.13982E-02 7.67537E-02-6.48196E-04-3.88811E-02 1.22610E-02
 -1      2136-7.86785E-02-8.46400E-02 2.74901E-01-1.27710E-03-3.83765E-02 2.15763E-02
 -1      2137-1.17141E-02-7.91196E-03 3.68454E-02-4.24524E-03-2.59238E-02 1.90072E-03
 -1      2138-8.03572E-04 2.53088E-03-4.98154E-03-1.36838E-04-1.43454E-02 1.35239E-02
 -1      2139-8.71990E-03-2.75839E-03 1.64138E-02-2.72910E-03-1.77987E-02 1.36594E-02
 -1      2140-1.20702E-02-1.12249E-02 3.02338E-02-2.90562E-03-1.33800E-02 1.88536E-02
 -1      2141-2.36913E-02 4.57209E-02-5.27215E-02-5.70183E-02-2.37088E-02 4.76259E-02
 -1      2142-8.00220E-02-1.27692E-01 4.35490E-01-4.15750E-02-5.64353E-02 3.92660E-02
 -1      2143 2.24674E-02 1.19141E-01-2.83564E-01-2.68589E-02-6.40471E-02 3.05233E-02
 -1      2144-8.93827E-03 9.99597E-04 6.15578E-03-4.61860E-03-4.09545E-02 1.27694E-02
 -1      2145 2.46446E-04-5.74174E-04-1.40951E-04 8.91471E-05-3.16453E-03-4.02439E-03
 -1      2146-4.21070E-03-7.58787E-04 5.60741E-03 7.34217E-05-8.66065E-03-7.53248E-03
 -1      2147-2.00961E-03 2.03774E-03-7.92510E-04-6.99623E-04-1.15318E-02-9.76074E-03
 -1      2148-5.98335E-03 1.02670E-04-6.43342E-04 5.38135E-03-5.78917E-02-2.86414E-02
 -1      2149 1.57822E-02-1.37333E-02-4.07801E-03-2.91604E-02-4.04182E-02 6.40626E-03
 -1      2150 5.52232E-02 8.42425E-02-2.94911E-01-4.55400E-02 3.36174E-02 3.96136E-02
 -1      2151 2.14705E-01 5.22549E-01-1.34944E+00-8.37034E-02-1.59070E-01 2.23095E-01
 -1      2152 7.07292E-02 1.33767E-01-3.42969E-01-1.22877E-01 1.00581E-01 1.89542E-02
 -1      2153 1.02199E-01 1.94088E-01-6.44027E-01 4.52404E-02 1.43304E-04-7.04601E-02
 -1      2154 2.64391E-01 4.81778E-01-1.40081E+00-2.32785E-02-1.97082E-02 1.48993E-01
 -1      2155 5.89077E-02 4.74918E-02-1.74371E-01-1.02404E-02-2.16226E-02-1.05884E-02
 -1      2156-1.31322E-02-1.71860E-02 4.44264E-02-2.15434E-04-1.53570E-02 4.21748E-02
 -1      2157 8.41657E-03-1.59281E-01 3.22010E-01-5.78658E-02-6.50871E-02-7.67533E-03
 -1      2158-7.23942E-03-3.43918E-02 3.67948E-02-7.29034E-02-8.50630E-02-2.10489E-02
 -1      2159-4.76692E-02-9.72243E-02 2.42856E-01-8.64929E-04-7.43708E-02-2.35323E-03
 -1      2160-7.47236E-02-9.13158E-02 2.76337E-01 7.35062E-03-7.84290E-02 3.16950E-03
 -1      2161-2.54153E-03 2.27726E-02-3.05061E-02 1.29567E-03-3.62248E-02 1.22555E-02
 -1      2162 1.40114E-02 1.42098E-02-3.10361E-02-5.58837E-03-3.95162E-02 5.23476E-02
 -1      2163 5.03200E-02 4.41839E-02-1.89321E-01-1.42929E-02-3.09864E-02 1.19576E-02
 -1      2164-1.41417E-02-8.60923E-02 1.75104E-01-1.49565E-02-7.43793E-03 1.85274E-02
 -1      2165 5.62706E-03 1.04634E-02-3.67111E-02-1.00744E-03-8.08739E-03-7.62666E-03
 -1      2166-4.93344E-03-3.05668E-03 1.07483E-02-3.20548E-04-7.05230E-03 4.09523E-03
 -1      2167-5.42917E-03 2.38005E-02-3.20056E-02-4.90099E-03-5.02601E-02 3.77009E-02
 -1      2168-8.11066E-02-9.92503E-02 3.26117E-01-7.12460E-03-4.40130E-02 4.91608E-02
 -1      2169 3.21063E-02 3.77539E-02-1.17754E-01-7.42134E-04-5.19466E-03-2.74038E-02
 -1      2170 3.60602E-02 3.68123E-02-1.19275E-01 4.87430E-03-6.01262E-03-2.26092E-02
 -1      2171 1.69107E-02 1.40391E-02-5.30371E-02 1.10967E-03-9.03220E-03 6.15430E-03
 -1      2172 1.38671E-02 1.54529E-02-4.98025E-02-1.79871E-03-1.09062E-02 1.64184E-02
 -1      2173 1.55636E-04 1.74588E-03-3.75290E-03 5.71610E-04-4.49500E-03-4.52657E-03
 -1      2174-2.37317E-05 8.96557E-04-1.60957E-03-4.42835E-04-4.49036E-03-4.29478E-03
 -1      2175 8.16648E-03 7.66508E-03-2.81312E-02 1.69332E-03-1.58943E-02-1.68839E-02
 -1      2176 2.81663E-02 2.78406E-02-9.02496E-02-5.48654E-03-1.49310E-02-8.33396E-03
 -1      2177-1.84535E-02-8.54103E-03 5.61792E-02-1.78719E-03-2.64404E-02 1.45807E-02
 -1      2178-4.85589E-02-5.55669E-02 1.64703E-01-7.73651E-04-3.92319E-02 1.56476E-02
 -1      2179 1.01345E-03 1.80712E-03-5.12464E-03 9.90989E-05-3.69215E-03-3.98622E-03
 -1      2180 1.06770E-01 2.56193E-01-6.56226E-01 6.54291E-02 1.66865E-02-9.84331E-02
 -1      2181-4.56199E-03 1.80265E-03 2.72754E-03-1.23724E-03-8.50965E-03 2.72164E-03
 -1      2182 5.44827E-03 4.04858E-03-1.76316E-02-1.34055E-03-1.15366E-02-8.84433E-03
 -1      2183-6.05216E-04 6.02248E-05 4.02814E-04-3.32205E-05-2.26942E-03-2.70406E-03
 -1      2184-2.90375E-02-3.60697E-02 1.05419E-01 5.57317E-03-7.52854E-02-2.75128E-02
 -1      2185-1.45947E-02-1.25528E-02 3.63478E-02-4.81588E-03-1.83242E-02 2.13187E-02
 -1      2186 3.80882E-03-3.58396E-03-3.86270E-04 2.40892E-03-1.86204E-02 1.20654E-02
 -1      2187 1.08207E-01 1.10371E-01-2.23449E-01 3.69815E-02 8.30950E-04 5.51801E-02
 -1      2188 1.44327E-01 1.36492E-01-5.01611E-01-1.86574E-03-3.74487E-02-1.91918E-03
 -1      2189-9.02054E-03-4.03007E-03 1.74636E-02-1.21627E-03-8.24339E-03 6.64333E-03
 -1      2190 6.48504E-02 9.47003E-02-2.47985E-01-1.14985E-03-3.77824E-03 2.19921E-02
 -1      2191 2.51279E-01 5.01606E-01-1.43683E+00-1.23412E-02 4.33191E-02 1.89185E-01
 -1      2192-3.57109E-02-6.68151E-02 1.69801E-01-1.14913E-02-3.96347E-02 2.79872E-02
 -1      2193-8.74115E-02-8.49134E-02 2.99177E-01-7.54386E-03-5.25465E-02 4.40482E-02
 -1      2194 2.60964E-02 1.38028E-02-7.45260E-02-6.45923E-03-4.91419E-02 1.15382E-02
 -1      2195 2.01173E-03 2.28934E-03-4.13466E-03 2.13776E-04-9.83804E-03-7.58687E-03
 -1      2196-2.22179E-03 1.66156E-03 9.49905E-04-6.77105E-04-1.00398E-02-6.28072E-03
 -1      2197-9.29180E-03-1.10690E-02 2.37488E-02 2.08721E-03-3.33254E-02 1.12096E-02
 -1      2198-4.31824E-02-4.83688E-02 1.44453E-01-1.48234E-03-3.67276E-02 2.84016E-02
 -1      2199 5.22961E-02 4.97300E-02-1.71460E-01-3.49666E-03-3.34030E-02 1.55707E-02
 -1      2200-2.65408E-02-1.09492E-02 7.78481E-02-1.63285E-03-5.47091E-02-3.14786E-02
 -1      2201 1.35142E-01 1.22104E-01-4.70702E-01 3.78200E-03-1.03475E-02 2.51924E-02
 -1      2202 4.58898E-02 5.93320E-02-1.67181E-01-5.48536E-03-4.38904E-02 5.26484E-02
 -1      2203 2.99791E-01 3.54741E-01-1.12858E+00-5.64753E-03-9.12165E-03-7.98559E-03
 -1      2204-6.73326E-03-2.98840E-03 1.25543E-02 3.21003E-04-7.47058E-03 5.65579E-03
 -1      2205 4.58957E-03 6.10921E-03-1.87773E-02-1.36597E-04-7.78042E-03-6.26168E-03
 -1      2206-2.13243E-03-8.11630E-04 2.18085E-03-9.61111E-04-1.21440E-03 3.13248E-03
 -1      2207-1.46407E-03 1.21132E-03-7.52857E-04-9.67049E-04-1.31352E-03 4.19317E-03
 -1      2208-4.81206E-04 5.59500E-03-1.19943E-02-5.96694E-04-2.40997E-02 1.38464E-02
 -1      2209 4.62019E-02 4.18418E-02-1.44461E-01 2.84638E-04-1.31127E-03-2.54943E-02
 -1      2210-2.86384E-03-2.41783E-04 4.09741E-03-7.78421E-05 3.25172E-04-4.84405E-03
 -1      2211 6.93984E-03 6.82670E-03-2.08310E-02-1.49404E-03-1.15850E-02-7.45367E-03
 -1      2212-1.02977E-02-1.71180E-03 2.57176E-02-2.57443E-06-2.09646E-02 1.01522E-02
 -1      2213-3.28048E-02-3.49406E-02 1.01461E-01-1.45653E-03-2.35191E-02 1.31599E-02
 -1      2214 3.51564E-03 1.47497E-03-1.02629E-02-3.27939E-03-6.61868E-03 3.80124E-03
 -1      2215 6.19101E-03 1.30114E-02-3.04029E-02-2.94557E-04-7.75039E-03-2.07718E-03
 -1      2216 1.81662E-03 4.20035E-03-7.72803E-03-7.34801E-04-7.81696E-03 5.80816E-03
 -1      2217-3.78708E-03-4.41474E-03 9.14060E-03-1.81680E-03-6.31039E-03 1.10728E-02
 -1      2218-5.66482E-02-5.02459E-02 1.92197E-01 9.37630E-05-3.29351E-02 7.07177E-02
 -1      2219 1.67058E-03 2.04157E-03-1.19433E-03 1.65587E-03-8.44786E-03 1.89609E-02
 -1      2220-1.26491E-02-8.23688E-03 3.20317E-02 4.62654E-04-1.90421E-02 2.48030E-02
 -1      2221 1.47932E-02 2.78169E-02-7.09847E-02 4.65478E-03-3.65835E-02 4.28197E-02
 -1      2222 3.69419E-02 1.74593E-02-1.14551E-01-3.57574E-04-4.44340E-02 2.05306E-02
 -1      2223-4.63657E-02-6.14429E-02 1.93950E-01 4.12264E-03-2.74106E-02 5.64956E-02
 -1      2224-3.77256E-02-5.05908E-02 1.61491E-01 9.59621E-03-6.71836E-02-2.46964E-02
 -1      2225-1.13850E-02-8.60338E-03 2.64918E-02-1.69909E-03-1.17848E-02 1.28131E-02
 -1      2226 7.48925E-04 2.74751E-03-8.71871E-03-9.49665E-04-9.22181E-03-6.90980E-03
 -1      2227 2.73539E-01 2.85777E-01-9.67285E-01-2.53724E-03 2.27684E-03-1.92562E-02
 -1      2228 1.03322E-03 2.40396E-03-4.98081E-03-3.95351E-04-3.54277E-03-2.57762E-03
 -1      2229 2.57759E-02 9.16124E-03-6.42723E-02-4.62781E-02-5.13596E-02-1.93058E-02
 -1      2230-7.64995E-03 4.40692E-03 3.99711E-03 7.60938E-04-3.66523E-02 1.12048E-02
 -1      2231 3.25115E-03-1.47017E-03-8.78012E-03-1.31313E-03-6.64173E-03 1.03421E-02
 -1      2232-3.23446E-03 4.05454E-03 1.07455E-03-1.05540E-03-6.22717E-03 7.62867E-03
 -1      2233-2.97748E-03 5.59251E-05 2.76485E-03-9.28833E-04-6.36180E-03 5.64645E-03
 -1      2234 8.13356E-04 3.33624E-03-4.59243E-03 7.12549E-05-6.72501E-03 3.36064E-03
 -1      2235 6.20690E-02 7.28333E-02-2.27543E-01 3.95758E-04-6.18408E-02 1.35650E-02
 -1      2236 1.96549E-02 3.27433E-02-8.42900E-02-9.16552E-03-4.19986E-02 1.80851E-02
 -1      2237-4.24056E-02-3.29766E-02 1.28618E-01-3.09441E-03-3.07159E-02 2.50438E-02
 -1      2238-1.01544E-02-4.12159E-03 2.37957E-02-6.34404E-04-3.01037E-02 1.11458E-02
 -1      2239-1.43019E-02-2.03821E-02 6.68098E-02 2.95282E-03-2.71771E-02 1.63228E-02
 -1      2240 2.46677E-01 2.87141E-01-9.14489E-01 1.06650E-02-2.77322E-02-3.59503E-02
 -1      2241-3.82680E-02-3.35622E-02 1.05623E-01-3.66588E-03-2.93414E-02 6.19995E-03
 -1      2242 2.74863E-02 5.79350E-02-1.55118E-01-1.77465E-03-5.26772E-02 1.68335E-02
 -1      2243 9.26766E-03-3.82614E-03-2.29785E-02-9.91086E-04-4.79210E-02 1.88224E-02
 -1      2244-5.93381E-04-4.24919E-04 6.18097E-04-8.69708E-04-8.59356E-04 1.92531E-04
 -1      2245 3.21226E-03 1.36554E-02-2.80015E-02 2.30213E-03-3.33719E-02 3.86115E-02
 -1      2246-3.83066E-02-2.91308E-02 1.22808E-01 7.30386E-03-3.04870E-02 4.08980E-02
 -1      2247-6.56440E-03-5.19522E-03 1.38147E-02 9.41011E-04-2.49361E-02 8.65135E-03
 -1      2248 7.46154E-03 1.10674E-02-2.84796E-02 1.09385E-03-5.92681E-04-9.91802E-03
 -1      2249 2.83331E-03 1.08478E-02-2.19109E-02-2.43266E-03-1.82678E-02 1.49132E-02
 -1      2250 5.73011E-03-4.05469E-02-5.73466E-02-9.81131E-02 4.38927E-02-1.23520E-02
 -1      2251-1.09964E-02-3.64491E-03 4.62814E-02-1.14947E-01-5.49783E-02-2.36979E-04
 -1      2252-2.01694E-03 7.02454E-04 8.50082E-04-6.64287E-04-1.13955E-02 1.13735E-02
 -1      2253-1.83726E-02-2.28465E-02 6.41656E-02 7.35239E-04-3.30592E-02 3.24335E-03
 -1      2254-2.18538E-03 2.63706E-03-5.33294E-03 9.40644E-04-3.54030E-02 2.27266E-02
 -1      2255-7.20567E-03-1.99871E-03 1.15931E-02-1.55456E-03-1.31684E-02 8.33712E-03
 -1      2256-2.20892E-02-2.18297E-02 7.07493E-02 2.17030E-04-1.59654E-02 5.11282E-02
 -1      2257-2.81987E-02-1.63797E-02 5.91525E-02-8.32361E-03-2.10304E-02 3.26559E-02
 -1      2258 3.63861E-03 1.53909E-02-3.44498E-02 2.92717E-03-3.75729E-02 2.10908E-02
 -1      2259-5.93177E-03 1.57716E-03 2.16614E-03-1.53558E-03-1.40001E-03 3.46157E-03
 -1      2260 6.96342E-02 5.03056E-02-2.20966E-01-4.48386E-04-2.52698E-02 1.77874E-02
 -1      2261-4.40484E-02-5.30033E-02 1.43187E-01-5.93357E-03-4.14609E-02 4.04543E-02
 -1      2262-1.25635E-02-1.59105E-02 2.91786E-02-3.51018E-03-3.84414E-02 3.52012E-02
 -1      2263 1.43049E-01 1.61809E-01-5.22934E-01-3.96535E-03-4.78928E-02 6.55136E-03
 -1      2264-1.25289E-02-3.76158E-03 2.10313E-02-5.91946E-03-4.59796E-02 3.09533E-02
 -1      2265 9.44304E-02 8.36864E-02-3.13167E-01-3.35767E-03-2.39772E-02 2.34408E-02
 -1      2266-6.33666E-04 1.24463E-03-2.54610E-03-4.74778E-04-1.00305E-02 6.08976E-03
 -1      2267-4.70141E-02-4.31189E-02 1.45570E-01-7.70174E-04-3.78451E-02 2.30005E-03
 -1      2268-1.96420E-02-1.88031E-02 5.79017E-02 1.08824E-03-4.26128E-02 2.69482E-02
 -1      2269 5.35006E-03 1.21862E-02-2.78317E-02-2.57461E-03-2.40809E-02 2.43800E-02
 -1      2270 6.21820E-02 6.34492E-02-2.02909E-01 4.81190E-03-4.39802E-02 3.69510E-02
 -1      2271 1.28140E-02 2.09199E-02-4.71405E-02-3.06553E-04-3.28892E-02 2.13467E-02
 -1      2272-2.54026E-02-1.21049E-02 4.72207E-02-5.64015E-03-2.57507E-02 3.62893E-02
 -1      2273-7.65467E-03-9.30397E-03 2.07902E-02-3.57939E-03-1.41848E-02 2.29716E-02
 -1      2274 7.29885E-03-7.43812E-04-1.35338E-02 8.62932E-04-1.46858E-02 1.03205E-02
 -1      2275-2.14927E-02-1.16327E-02 7.58097E-02-6.49084E-03-1.89040E-02 5.11906E-02
 -1      2276 5.70184E-02 4.76964E-02-1.89676E-01-2.65992E-03-3.10988E-02 2.97230E-02
 -1      2277 6.33169E-02 6.31562E-02-2.06603E-01 1.03394E-02-3.04073E-02 3.89805E-02
 -1      2278 3.17323E-03-4.34353E-03 1.69747E-03-3.83659E-03-2.06136E-02 3.20930E-02
 -1      2279 8.37904E-03 1.24169E-02-3.80798E-02-4.60429E-05-2.86316E-02 2.76623E-02
 -1      2280-6.18869E-02-6.75749E-02 2.12072E-01-2.49324E-03-4.29982E-02 1.00995E-02
 -1      2281-3.41874E-02-4.61221E-02 1.21750E-01-7.50732E-03-3.57371E-02 5.50107E-02
 -1      2282-6.73035E-02-1.02814E-01 2.65030E-01-7.57604E-03-5.36634E-02 5.79963E-02
 -1      2283-2.47604E-02-2.69237E-02 7.99201E-02-2.05277E-03-2.67843E-02 2.05346E-02
 -1      2284-2.91957E-02-3.04814E-02 1.05665E-01-1.85089E-03-3.09370E-02 4.11659E-02
 -1      2285-1.57782E-03 1.36750E-02-5.08964E-03-1.93424E-03-1.76384E-02 3.43108E-02
 -1      2286-4.78713E-02-3.06323E-01 2.45408E-01-1.42811E-01 1.23508E-02 1.09381E-02
 -1      2287-2.88526E-02-2.27941E-01 6.02854E-01-1.13764E-01 1.97497E-02-1.94643E-02
 -1      2288-2.29485E-02-2.83541E-02 9.40893E-02-5.97287E-03-3.83138E-02 1.60607E-02
 -1      2289 4.76616E-04 2.91383E-03-4.83826E-03-1.57092E-03-7.61760E-03 3.78169E-03
 -1      2290-1.00463E-03 5.46527E-04-2.15209E-03-8.80199E-04-4.77626E-03 2.13510E-03
 -1      2291-1.78061E-02-8.39856E-03 2.95301E-02-4.98574E-04-3.70998E-02 2.74829E-02
 -1      2292 1.16956E-03 7.47753E-03-1.15725E-02-1.13361E-03-5.50794E-03 4.17979E-03
 -1      2293 1.05866E-01 1.08016E-01-3.50746E-01 1.07963E-02-2.02180E-02 2.45013E-02
 -1      2294 2.55337E-01 3.72207E-01-1.15730E+00-1.40762E-02 2.22915E-02 6.53575E-02
 -1      2295 1.28307E-01 1.99801E-01-5.48679E-01-5.47539E-03-4.55074E-03 6.15829E-02
 -1      2296 3.27166E-03 4.59103E-03-9.16835E-03 2.12201E-03-9.32137E-03 1.07851E-02
 -1      2297 3.44388E-02-4.16260E-02-6.06576E-01-1.45708E-01 3.10356E-02 3.99492E-02
 -1      2298-6.26356E-02-8.98887E-02 2.55975E-01-7.62965E-03-4.94785E-02 2.46552E-02
 -1      2299-4.88454E-02-6.89187E-02 1.90350E-01-9.17880E-03-3.30028E-02 3.91028E-02
 -1      2300 3.17248E-02 1.87694E-02-1.02088E-01-8.68918E-04-3.81236E-02 1.74601E-02
 -1      2301 2.51735E-01 3.59759E-01-1.09116E+00 2.11213E-03-8.70477E-03 3.48025E-02
 -1      2302-2.28569E-02-1.10168E-01 3.05343E-01-2.01214E-02-5.61550E-03 1.18726E-02
 -1      2303-2.89313E-02-2.03916E-02 8.11530E-02-8.98813E-04-3.67785E-02 3.95554E-02
 -1      2304-1.01585E-03-1.85699E-03 1.81709E-03-1.24302E-03-4.59897E-03 7.20358E-03
 -1      2305-9.05771E-05-4.92253E-04 7.01157E-04-2.96415E-06-3.52786E-03 2.99917E-03
 -1      2306-4.11426E-03-4.08359E-03 1.14780E-02-1.45281E-03-1.04475E-02 2.03213E-02
 -1      2307-5.84796E-03 1.07679E-03 2.85701E-03-1.04273E-03-1.45081E-03 6.09424E-04
 -1      2308 1.70588E-01 2.07827E-01-6.73841E-01-1.57666E-02-1.99574E-02 4.86772E-02
 -1      2309-1.54352E-02-8.79812E-02 2.09640E-01-7.00627E-02-6.44357E-03-2.57887E-02
 -1      2310 1.02109E-01 7.15448E-02-3.60487E-01-3.06328E-02-8.34513E-04 2.51622E-02
 -1      2311 7.08606E-02 8.75685E-02-2.32848E-01 7.63329E-03-2.71477E-02 1.46645E-02
 -1      2312 1.04903E-01 8.84859E-02-3.49466E-01-3.27367E-03-2.97463E-02 1.51357E-02
 -1      2313 3.66237E-02-1.48750E-01 2.92044E-01-4.20599E-02-9.73943E-03-4.27739E-02
 -1      2314-3.18967E-02-3.86179E-02 1.10181E-01-1.64984E-03-3.61054E-02 4.09216E-02
 -1      2315-2.34923E-03-7.24728E-03 2.28293E-02-2.02776E-03-1.75473E-02 3.34954E-02
 -1      2316-1.69663E-02-2.29326E-02 5.82528E-02-1.29606E-03-2.45902E-02 2.98491E-02
 -1      2317 1.71454E-05-2.36610E-03 8.16815E-03-3.82729E-04-1.08954E-02 2.43729E-02
 -1      2318 3.71757E-02 1.06412E-01-2.42883E-01-1.27790E-02-3.69084E-02 4.48349E-02
 -1      2319 4.10531E-03 6.69059E-03-1.97978E-02 7.32515E-04-2.69195E-02 1.59181E-02
 -1      2320-9.30806E-03-9.26420E-02 2.08845E-01-1.77865E-02-9.56739E-03 5.60960E-03
 -1      2321-1.20609E-02-2.07588E-03 1.99261E-02-3.50943E-03-1.77847E-02 3.00201E-02
 -1      2322-1.83093E-02-7.27940E-03 3.96340E-02-3.06738E-03-2.46532E-02 3.86981E-02
 -1      2323-3.96263E-03-2.02778E-04 3.31444E-03-7.53512E-04-4.05625E-03 6.21238E-03
 -1      2324-2.06874E-02-1.75741E-02 4.93414E-02-3.48484E-04-2.62694E-02 3.34183E-02
 -1      2325-1.95129E-02-2.39093E-02 6.58358E-02-2.16236E-03-3.00366E-02 3.37634E-02
 -1      2326 3.35256E-03-4.38309E-03 8.91691E-03 1.17451E-03-2.38986E-02 2.60233E-02
 -1      2327-1.74942E-02-7.97801E-03 2.80653E-02-3.94513E-03-2.06679E-02 2.73322E-02
 -1      2328-1.14997E-02-6.37426E-03 2.98621E-02 8.15159E-04-1.82299E-02 3.53206E-02
 -1      2329 2.64380E-03 6.92206E-03-1.24742E-02 7.09786E-04-4.19977E-03 1.01666E-02
 -1      2330-5.04864E-03 2.00945E-03 5.40336E-04-1.21451E-03-1.30859E-03-3.49539E-04
 -1      2331-3.67932E-03-1.33628E-02 3.70484E-02 4.02871E-03-2.43862E-02 3.03927E-02
 -1      2332-2.64444E-05-7.66336E-03 1.73258E-02 2.65135E-03-1.62853E-02 2.13088E-02
 -1      2333 2.49722E-03 9.53063E-03-2.40053E-02-4.45589E-04-2.02268E-02 2.03559E-02
 -1      2334 8.56471E-02 8.27415E-02-2.83217E-01 7.82254E-03-4.05771E-02 8.74661E-03
 -1      2335-1.22491E-03 4.09051E-03-3.36900E-03-5.71081E-04-4.42243E-03 9.30755E-03
 -1      2336 5.98583E-03 9.48452E-03-2.51430E-02-1.28585E-03-1.63688E-02 1.42994E-02
 -1      2337 8.44737E-03 1.72228E-02-4.30277E-02 3.77540E-04-1.09915E-02-3.52965E-04
 -1      2338-3.91556E-03-5.71684E-03 1.67020E-02-7.07391E-04-8.42515E-03 2.79106E-02
 -1      2339 1.75351E-04-2.38949E-03 1.02935E-02-3.43820E-03-1.56821E-02 2.69102E-02
 -1      2340 1.31431E-04 4.34880E-03-6.92252E-03 7.60875E-05-2.78552E-03-2.91430E-04
 -1      2341-1.06504E-03 2.00402E-03-2.08985E-03-5.71890E-04-1.15161E-03 2.36625E-03
 -1      2342-1.55506E-02-7.38413E-03 3.41417E-02-3.06968E-03-1.93510E-02 3.48277E-02
 -1      2343 2.15496E-02 2.28832E-02-7.69353E-02 6.42352E-04-1.45905E-02 6.49532E-03
 -1      2344 9.77204E-02 1.23267E-01-3.60683E-01 9.65612E-03-2.79852E-02 1.03049E-02
 -1      2345-3.54670E-02-4.79799E-01 3.17580E-01 1.93445E-01-2.55506E-03 6.22901E-02
 -1      2346 1.17120E-01 4.62349E-01-1.12185E+00-2.05542E-02 1.24722E-01 2.67054E-01
 -1      2347-1.62204E-03 2.84199E-04 2.36024E-03-9.79584E-04-8.21984E-04-4.65504E-03
 -1      2348-5.43342E-04 1.02421E-03-1.45046E-03-9.11078E-04-1.30461E-03 5.30119E-04
 -1      2349 2.74311E-02-7.19217E-03-5.92501E-02-1.39373E-02-1.36931E-02 3.68212E-02
 -1      2350 3.76258E-02 4.80850E-02-1.51777E-01 3.71786E-03-3.99109E-02 6.57676E-03
 -1      2351 2.13351E-01 2.09144E-01-7.15237E-01 7.67237E-04-1.02087E-02-5.73281E-02
 -1      2352 1.26943E-02 1.13477E-02-3.78985E-02-1.68132E-03-1.04725E-03-1.19183E-02
 -1      2353 1.64651E-02 1.95407E-02-6.01585E-02 1.04398E-03-3.27147E-04-1.87404E-02
 -3
    1PSTEP                         4           1           1          
  100CL  101 1.000000000        2353                     0    1           1
 -4  ERROR       1    1
 -5  STR(%)      1    1    0    0
 -1         1 3.18980E+01
 -1         2 2.36349E+01
 -1         3 2.82831E+01
 -1         4 3.43784E+01
 -1         5 2.57558E+01
 -1         6 1.43671E+01
 -1         7 3.22459E+01
 -1         8 3.41728E+01
 -1         9 3.41728E+01
 -1        10 3.31848E+01
 -1        11 3.27498E+01
 -1        12 3.22972E+01
 -1        13 3.22972E+01
 -1        14 3.21251E+01
 -1        15 3.21251E+01
 -1        16 3.24838E+01
 -1        17 3.28285E+01
 -1        18 3.28285E+01
 -1        19 3.26621E+01
 -1        20 3.27500E+01
 -1        21 3.27500E+01
 -1        22 3.27932E+01
 -1        23 3.27932E+01
 -1        24 3.25779E+01
 -1        25 3.25779E+01
 -1        26 3.25123E+01
 -1        27 3.25123E+01
 -1        28 3.24779E+01
 -1        29 3.04990E+01
 -1        30 3.25913E+01
 -1        31 3.25913E+01
 -1        32 3.08625E+01
 -1        33 2.88835E+01
 -1        34 3.07955E+01
 -1        35 2.89370E+01
 -1        36 3.20719E+01
 -1        37 3.32093E+01
 -1        38 3.41728E+01
 -1        39 3.36788E+01
 -1        40 3.29673E+01
 -1        41 3.25235E+01
 -1        42 3.22972E+01
 -1        43 3.22111E+01
 -1        44 3.21251E+01
 -1        45 3.23044E+01
 -1        46 3.26561E+01
 -1        47 3.28285E+01
 -1        48 3.27453E+01
 -1        49 3.27060E+01
 -1        50 3.27500E+01
 -1        51 3.27716E+01
 -1        52 3.27932E+01
 -1        53 3.26856E+01
 -1        54 3.25779E+01
 -1        55 3.25451E+01
 -1        56 3.25123E+01
 -1        57 3.24951E+01
 -1        58 3.14884E+01
 -1        59 3.15451E+01
 -1        60 3.25913E+01
 -1        61 3.17269E+01
 -1        62 2.98730E+01
 -1        63 2.98395E+01
 -1        64 2.98662E+01
 -1        65 2.62859E+01
 -1        66 2.51167E+01
 -1        67 2.63496E+01
 -1        68 1.90453E+01
 -1        69 2.37902E+01
 -1        70 2.37902E+01
 -1        71 2.43758E+01
 -1        72 2.57332E+01
 -1        73 2.26974E+01
 -1        74 2.14177E+01
 -1        75 2.37902E+01
 -1        76 2.60366E+01
 -1        77 3.25434E+01
 -1        78 3.25434E+01
 -1        79 3.21127E+01
 -1        80 3.16728E+01
 -1        81 2.95444E+01
 -1        82 2.95444E+01
 -1        83 2.79512E+01
 -1        84 2.71629E+01
 -1        85 2.56170E+01
 -1        86 2.43973E+01
 -1        87 2.90849E+01
 -1        88 2.20754E+01
 -1        89 2.91530E+01
 -1        90 2.82831E+01
 -1        91 3.34609E+01
 -1        92 3.25434E+01
 -1        93 3.23281E+01
 -1        94 3.18927E+01
 -1        95 3.06086E+01
 -1        96 2.95444E+01
 -1        97 2.87478E+01
 -1        98 2.75570E+01
 -1        99 2.63899E+01
 -1       100 2.50072E+01
 -1       101 2.67411E+01
 -1       102 2.55802E+01
 -1       103 2.56142E+01
 -1       104 2.87181E+01
 -1       105 2.82831E+01
 -1       106 4.26547E+01
 -1       107 3.94507E+01
 -1       108 3.89890E+01
 -1       109 3.75292E+01
 -1       110 3.56460E+01
 -1       111 3.72763E+01
 -1       112 4.10527E+01
 -1       113 3.92198E+01
 -1       114 3.82591E+01
 -1       115 3.65876E+01
 -1       116 3.50122E+01
 -1       117 2.70194E+01
 -1       118 1.42539E+01
 -1       119 1.42430E+01
 -1       120 1.17564E+01
 -1       121 1.15854E+01
 -1       122 1.10317E+01
 -1       123 9.92562E+00
 -1       124 1.01563E+01
 -1       125 2.81636E+01
 -1       126 2.74186E+01
 -1       127 2.65008E+01
 -1       128 1.24060E+01
 -1       129 1.47502E+01
 -1       130 2.18044E+01
 -1       131 2.82831E+01
 -1       132 1.43105E+01
 -1       133 1.42485E+01
 -1       134 1.29997E+01
 -1       135 1.16709E+01
 -1       136 1.13085E+01
 -1       137 1.04787E+01
 -1       138 1.00410E+01
 -1       139 1.91600E+01
 -1       140 2.77911E+01
 -1       141 2.69597E+01
 -1       142 1.94534E+01
 -1       143 1.35781E+01
 -1       144 1.82773E+01
 -1       145 2.50437E+01
 -1       146 2.70194E+01
 -1       147 2.43728E+01
 -1       148 4.26547E+01
 -1       149 3.94507E+01
 -1       150 3.89890E+01
 -1       151 3.75292E+01
 -1       152 3.43784E+01
 -1       153 3.72763E+01
 -1       154 4.10527E+01
 -1       155 3.92198E+01
 -1       156 3.82591E+01
 -1       157 3.59538E+01
 -1       158 2.43728E+01
 -1       159 2.91888E+01
 -1       160 2.59525E+01
 -1       161 1.74196E+01
 -1       162 2.37774E+01
 -1       163 2.20723E+01
 -1       164 2.64118E+01
 -1       165 2.75707E+01
 -1       166 2.16860E+01
 -1       167 2.05985E+01
 -1       168 2.29249E+01
 -1       169 2.39140E+01
 -1       170 3.04939E+01
 -1       171 3.04990E+01
 -1       172 3.03211E+01
 -1       173 3.01919E+01
 -1       174 3.02520E+01
 -1       175 3.01319E+01
 -1       176 3.05406E+01
 -1       177 2.98592E+01
 -1       178 3.05573E+01
 -1       179 3.01486E+01
 -1       180 3.10911E+01
 -1       181 3.03984E+01
 -1       182 3.06110E+01
 -1       183 3.06110E+01
 -1       184 3.03495E+01
 -1       185 3.03183E+01
 -1       186 3.05187E+01
 -1       187 3.09126E+01
 -1       188 3.03256E+01
 -1       189 3.02558E+01
 -1       190 3.04642E+01
 -1       191 3.07422E+01
 -1       192 3.04642E+01
 -1       193 3.01548E+01
 -1       194 3.04021E+01
 -1       195 3.07008E+01
 -1       196 3.05062E+01
 -1       197 3.05187E+01
 -1       198 3.06355E+01
 -1       199 3.01833E+01
 -1       200 3.03495E+01
 -1       201 3.21127E+01
 -1       202 3.02096E+01
 -1       203 3.03922E+01
 -1       204 3.13025E+01
 -1       205 3.21127E+01
 -1       206 3.01591E+01
 -1       207 3.04662E+01
 -1       208 3.03922E+01
 -1       209 3.02552E+01
 -1       210 3.03768E+01
 -1       211 3.03548E+01
 -1       212 2.97372E+01
 -1       213 3.11078E+01
 -1       214 3.03768E+01
 -1       215 3.08625E+01
 -1       216 3.25913E+01
 -1       217 3.25434E+01
 -1       218 3.07439E+01
 -1       219 3.13532E+01
 -1       220 3.09126E+01
 -1       221 3.13532E+01
 -1       222 3.09126E+01
 -1       223 3.06355E+01
 -1       224 3.06355E+01
 -1       225 3.11078E+01
 -1       226 3.07008E+01
 -1       227 3.07008E+01
 -1       228 2.97339E+01
 -1       229 2.98075E+01
 -1       230 3.22972E+01
 -1       231 3.18132E+01
 -1       232 2.98190E+01
 -1       233 2.99623E+01
 -1       234 3.04939E+01
 -1       235 3.03189E+01
 -1       236 3.04602E+01
 -1       237 3.07422E+01
 -1       238 3.05831E+01
 -1       239 2.94843E+01
 -1       240 3.05831E+01
 -1       241 2.94673E+01
 -1       242 3.13025E+01
 -1       243 3.13025E+01
 -1       244 3.04662E+01
 -1       245 3.04662E+01
 -1       246 3.16728E+01
 -1       247 3.03844E+01
 -1       248 2.96748E+01
 -1       249 2.91530E+01
 -1       250 3.05831E+01
 -1       251 3.00644E+01
 -1       252 3.00644E+01
 -1       253 3.01078E+01
 -1       254 4.26547E+01
 -1       255 2.91888E+01
 -1       256 2.76442E+01
 -1       257 2.97339E+01
 -1       258 2.99463E+01
 -1       259 2.93039E+01
 -1       260 3.07955E+01
 -1       261 2.89370E+01
 -1       262 3.20775E+01
 -1       263 3.06436E+01
 -1       264 3.02984E+01
 -1       265 3.01821E+01
 -1       266 3.24779E+01
 -1       267 3.25123E+01
 -1       268 3.04073E+01
 -1       269 3.05140E+01
 -1       270 3.25303E+01
 -1       271 3.27932E+01
 -1       272 3.04422E+01
 -1       273 3.02584E+01
 -1       274 3.25962E+01
 -1       275 3.28160E+01
 -1       276 3.03784E+01
 -1       277 3.01117E+01
 -1       278 3.04879E+01
 -1       279 3.41728E+01
 -1       280 3.09152E+01
 -1       281 3.22459E+01
 -1       282 3.03958E+01
 -1       283 3.21251E+01
 -1       284 3.07955E+01
 -1       285 3.31848E+01
 -1       286 3.25779E+01
 -1       287 3.23914E+01
 -1       288 3.27500E+01
 -1       289 3.25909E+01
 -1       290 3.24838E+01
 -1       291 3.28285E+01
 -1       292 3.03211E+01
 -1       293 3.02017E+01
 -1       294 3.15707E+01
 -1       295 3.03088E+01
 -1       296 2.98959E+01
 -1       297 3.03596E+01
 -1       298 3.56460E+01
 -1       299 3.02475E+01
 -1       300 2.82238E+01
 -1       301 3.02901E+01
 -1       302 3.03020E+01
 -1       303 3.04294E+01
 -1       304 2.98190E+01
 -1       305 3.01808E+01
 -1       306 3.04041E+01
 -1       307 3.05140E+01
 -1       308 3.00343E+01
 -1       309 3.08673E+01
 -1       310 3.75292E+01
 -1       311 3.02293E+01
 -1       312 3.45288E+01
 -1       313 3.01069E+01
 -1       314 3.03984E+01
 -1       315 3.01120E+01
 -1       316 3.01071E+01
 -1       317 3.01399E+01
 -1       318 3.00845E+01
 -1       319 3.70069E+01
 -1       320 3.01337E+01
 -1       321 3.01337E+01
 -1       322 3.01008E+01
 -1       323 3.01361E+01
 -1       324 3.05573E+01
 -1       325 3.01821E+01
 -1       326 3.01093E+01
 -1       327 3.27498E+01
 -1       328 3.00942E+01
 -1       329 3.02552E+01
 -1       330 3.02520E+01
 -1       331 3.02547E+01
 -1       332 3.74503E+01
 -1       333 2.70268E+01
 -1       334 2.60070E+01
 -1       335 2.82535E+01
 -1       336 2.82535E+01
 -1       337 3.40947E+01
 -1       338 3.50122E+01
 -1       339 3.56460E+01
 -1       340 3.22459E+01
 -1       341 3.32093E+01
 -1       342 3.74503E+01
 -1       343 4.26547E+01
 -1       344 3.74503E+01
 -1       345 3.41728E+01
 -1       346 3.41728E+01
 -1       347 3.32093E+01
 -1       348 3.36788E+01
 -1       349 3.31848E+01
 -1       350 3.36788E+01
 -1       351 3.29673E+01
 -1       352 3.27498E+01
 -1       353 3.29673E+01
 -1       354 3.19339E+01
 -1       355 3.21602E+01
 -1       356 3.21602E+01
 -1       357 3.22972E+01
 -1       358 3.22972E+01
 -1       359 3.19339E+01
 -1       360 3.19691E+01
 -1       361 3.20552E+01
 -1       362 3.20552E+01
 -1       363 3.21251E+01
 -1       364 3.21251E+01
 -1       365 3.13843E+01
 -1       366 3.12284E+01
 -1       367 3.13843E+01
 -1       368 3.22806E+01
 -1       369 3.21013E+01
 -1       370 3.21013E+01
 -1       371 3.26561E+01
 -1       372 3.24838E+01
 -1       373 3.22806E+01
 -1       374 3.28285E+01
 -1       375 3.28285E+01
 -1       376 3.26561E+01
 -1       377 3.28222E+01
 -1       378 3.27390E+01
 -1       379 3.28222E+01
 -1       380 3.26731E+01
 -1       381 3.26291E+01
 -1       382 3.27061E+01
 -1       383 3.27500E+01
 -1       384 3.27500E+01
 -1       385 3.26731E+01
 -1       386 3.26921E+01
 -1       387 3.26704E+01
 -1       388 3.26704E+01
 -1       389 3.27932E+01
 -1       390 3.27932E+01
 -1       391 3.26921E+01
 -1       392 3.25541E+01
 -1       393 3.26618E+01
 -1       394 3.26618E+01
 -1       395 3.25779E+01
 -1       396 3.25779E+01
 -1       397 3.25541E+01
 -1       398 3.24519E+01
 -1       399 3.24846E+01
 -1       400 3.24846E+01
 -1       401 3.25123E+01
 -1       402 3.25123E+01
 -1       403 3.24519E+01
 -1       404 3.24779E+01
 -1       405 3.24951E+01
 -1       406 3.24951E+01
 -1       407 3.14884E+01
 -1       408 3.04990E+01
 -1       409 3.14859E+01
 -1       410 3.04964E+01
 -1       411 3.14859E+01
 -1       412 3.15451E+01
 -1       413 3.25913E+01
 -1       414 3.25913E+01
 -1       415 3.14551E+01
 -1       416 3.04089E+01
 -1       417 3.14551E+01
 -1       418 3.17269E+01
 -1       419 3.08625E+01
 -1       420 3.17269E+01
 -1       421 2.97204E+01
 -1       422 3.07099E+01
 -1       423 3.07099E+01
 -1       424 3.07955E+01
 -1       425 2.98395E+01
 -1       426 3.06764E+01
 -1       427 2.89370E+01
 -1       428 2.98662E+01
 -1       429 3.07955E+01
 -1       430 2.98662E+01
 -1       431 3.07955E+01
 -1       432 2.90629E+01
 -1       433 2.71528E+01
 -1       434 2.90629E+01
 -1       435 2.77692E+01
 -1       436 2.45548E+01
 -1       437 2.82070E+01
 -1       438 2.69969E+01
 -1       439 2.88543E+01
 -1       440 2.84165E+01
 -1       441 2.48142E+01
 -1       442 2.71867E+01
 -1       443 3.03238E+01
 -1       444 2.60070E+01
 -1       445 2.94035E+01
 -1       446 3.25434E+01
 -1       447 3.25434E+01
 -1       448 3.40947E+01
 -1       449 3.21127E+01
 -1       450 3.23281E+01
 -1       451 3.23281E+01
 -1       452 3.16728E+01
 -1       453 3.18927E+01
 -1       454 3.21127E+01
 -1       455 3.21127E+01
 -1       456 3.18927E+01
 -1       457 3.00053E+01
 -1       458 3.10695E+01
 -1       459 3.10695E+01
 -1       460 3.04235E+01
 -1       461 3.04235E+01
 -1       462 3.08843E+01
 -1       463 2.92057E+01
 -1       464 3.00023E+01
 -1       465 3.08813E+01
 -1       466 2.89318E+01
 -1       467 2.93260E+01
 -1       468 3.05805E+01
 -1       469 2.81262E+01
 -1       470 2.88992E+01
 -1       471 3.06682E+01
 -1       472 2.76550E+01
 -1       473 2.82648E+01
 -1       474 3.07740E+01
 -1       475 3.02191E+01
 -1       476 2.78752E+01
 -1       477 3.11329E+01
 -1       478 2.58751E+01
 -1       479 2.93799E+01
 -1       480 3.12305E+01
 -1       481 3.00964E+01
 -1       482 3.03913E+01
 -1       483 2.91530E+01
 -1       484 2.56142E+01
 -1       485 2.94139E+01
 -1       486 2.88752E+01
 -1       487 2.93102E+01
 -1       488 2.94758E+01
 -1       489 2.93187E+01
 -1       490 2.93187E+01
 -1       491 2.88456E+01
 -1       492 4.10527E+01
 -1       493 3.67589E+01
 -1       494 3.69897E+01
 -1       495 3.63812E+01
 -1       496 3.47792E+01
 -1       497 3.23183E+01
 -1       498 3.82591E+01
 -1       499 3.75292E+01
 -1       500 3.79980E+01
 -1       501 3.72681E+01
 -1       502 3.57679E+01
 -1       503 3.65876E+01
 -1       504 3.65876E+01
 -1       505 3.04964E+01
 -1       506 3.04939E+01
 -1       507 3.01949E+01
 -1       508 3.01949E+01
 -1       509 3.14426E+01
 -1       510 3.04506E+01
 -1       511 3.01516E+01
 -1       512 3.04064E+01
 -1       513 3.02865E+01
 -1       514 3.02220E+01
 -1       515 3.02565E+01
 -1       516 3.02239E+01
 -1       517 3.02884E+01
 -1       518 3.02865E+01
 -1       519 3.03211E+01
 -1       520 3.03626E+01
 -1       521 3.03299E+01
 -1       522 3.03626E+01
 -1       523 3.01920E+01
 -1       524 3.01619E+01
 -1       525 3.02407E+01
 -1       526 3.02707E+01
 -1       527 3.03339E+01
 -1       528 3.02551E+01
 -1       529 3.02870E+01
 -1       530 3.02520E+01
 -1       531 3.01920E+01
 -1       532 3.03149E+01
 -1       533 3.02804E+01
 -1       534 3.02804E+01
 -1       535 3.01708E+01
 -1       536 3.02795E+01
 -1       537 3.02544E+01
 -1       538 3.02932E+01
 -1       539 3.03144E+01
 -1       540 3.05489E+01
 -1       541 3.02082E+01
 -1       542 3.01999E+01
 -1       543 3.08158E+01
 -1       544 3.04751E+01
 -1       545 3.07016E+01
 -1       546 3.07099E+01
 -1       547 3.03446E+01
 -1       548 3.06198E+01
 -1       549 3.13700E+01
 -1       550 3.15660E+01
 -1       551 2.95816E+01
 -1       552 2.99306E+01
 -1       553 2.98334E+01
 -1       554 3.04493E+01
 -1       555 2.99028E+01
 -1       556 2.98769E+01
 -1       557 2.96251E+01
 -1       558 3.05573E+01
 -1       559 3.06764E+01
 -1       560 3.00497E+01
 -1       561 3.04550E+01
 -1       562 2.99838E+01
 -1       563 3.02338E+01
 -1       564 3.03213E+01
 -1       565 3.01564E+01
 -1       566 2.97707E+01
 -1       567 3.04125E+01
 -1       568 2.98481E+01
 -1       569 3.05267E+01
 -1       570 3.04550E+01
 -1       571 2.98906E+01
 -1       572 2.98190E+01
 -1       573 3.05047E+01
 -1       574 3.06110E+01
 -1       575 3.05047E+01
 -1       576 3.04683E+01
 -1       577 3.03620E+01
 -1       578 3.01087E+01
 -1       579 3.02150E+01
 -1       580 3.03620E+01
 -1       581 3.03984E+01
 -1       582 2.99266E+01
 -1       583 3.02164E+01
 -1       584 3.02741E+01
 -1       585 3.04562E+01
 -1       586 3.04562E+01
 -1       587 3.08594E+01
 -1       588 3.08594E+01
 -1       589 3.09821E+01
 -1       590 3.08394E+01
 -1       591 3.11078E+01
 -1       592 3.08594E+01
 -1       593 3.12305E+01
 -1       594 3.04225E+01
 -1       595 3.01741E+01
 -1       596 3.02866E+01
 -1       597 2.98497E+01
 -1       598 3.05311E+01
 -1       599 3.05467E+01
 -1       600 3.02795E+01
 -1       601 3.03495E+01
 -1       602 3.05467E+01
 -1       603 3.02865E+01
 -1       604 3.02553E+01
 -1       605 3.08056E+01
 -1       606 3.05928E+01
 -1       607 3.41982E+01
 -1       608 3.39237E+01
 -1       609 3.36626E+01
 -1       610 3.36308E+01
 -1       611 3.04222E+01
 -1       612 3.06191E+01
 -1       613 3.07157E+01
 -1       614 3.07157E+01
 -1       615 3.05187E+01
 -1       616 3.04586E+01
 -1       617 3.03510E+01
 -1       618 3.03510E+01
 -1       619 3.03129E+01
 -1       620 3.01452E+01
 -1       621 3.02526E+01
 -1       622 3.03128E+01
 -1       623 3.01070E+01
 -1       624 3.11329E+01
 -1       625 3.09126E+01
 -1       626 3.07157E+01
 -1       627 3.11329E+01
 -1       628 3.09126E+01
 -1       629 3.09126E+01
 -1       630 3.03719E+01
 -1       631 3.03258E+01
 -1       632 3.04419E+01
 -1       633 3.04460E+01
 -1       634 3.03253E+01
 -1       635 3.04642E+01
 -1       636 3.06032E+01
 -1       637 3.06032E+01
 -1       638 3.04485E+01
 -1       639 3.03095E+01
 -1       640 3.05825E+01
 -1       641 3.05825E+01
 -1       642 3.02784E+01
 -1       643 3.04331E+01
 -1       644 3.05515E+01
 -1       645 3.05825E+01
 -1       646 3.07008E+01
 -1       647 3.06032E+01
 -1       648 3.07422E+01
 -1       649 3.04392E+01
 -1       650 3.01454E+01
 -1       651 3.05672E+01
 -1       652 3.10224E+01
 -1       653 3.08474E+01
 -1       654 3.02642E+01
 -1       655 3.10224E+01
 -1       656 3.05805E+01
 -1       657 3.04622E+01
 -1       658 3.06012E+01
 -1       659 3.02679E+01
 -1       660 3.01442E+01
 -1       661 3.01337E+01
 -1       662 3.01442E+01
 -1       663 3.01349E+01
 -1       664 3.04542E+01
 -1       665 3.06035E+01
 -1       666 3.02953E+01
 -1       667 3.02433E+01
 -1       668 3.01122E+01
 -1       669 3.02710E+01
 -1       670 3.01368E+01
 -1       671 3.06682E+01
 -1       672 3.05709E+01
 -1       673 3.06682E+01
 -1       674 3.07008E+01
 -1       675 3.07008E+01
 -1       676 3.05771E+01
 -1       677 3.05709E+01
 -1       678 3.05125E+01
 -1       679 3.03448E+01
 -1       680 3.06355E+01
 -1       681 3.01339E+01
 -1       682 3.07740E+01
 -1       683 3.07740E+01
 -1       684 3.06355E+01
 -1       685 3.06355E+01
 -1       686 3.01096E+01
 -1       687 3.01476E+01
 -1       688 3.00982E+01
 -1       689 3.11612E+01
 -1       690 3.12311E+01
 -1       691 3.12311E+01
 -1       692 3.14464E+01
 -1       693 3.16437E+01
 -1       694 3.12485E+01
 -1       695 3.02970E+01
 -1       696 3.10286E+01
 -1       697 3.03806E+01
 -1       698 3.08474E+01
 -1       699 3.03922E+01
 -1       700 3.02757E+01
 -1       701 3.02757E+01
 -1       702 3.02508E+01
 -1       703 3.01342E+01
 -1       704 3.01184E+01
 -1       705 3.02465E+01
 -1       706 3.01050E+01
 -1       707 3.13025E+01
 -1       708 3.08474E+01
 -1       709 3.10224E+01
 -1       710 3.13025E+01
 -1       711 3.13025E+01
 -1       712 3.04292E+01
 -1       713 3.03127E+01
 -1       714 3.04105E+01
 -1       715 3.02569E+01
 -1       716 3.03050E+01
 -1       717 3.02071E+01
 -1       718 3.01457E+01
 -1       719 3.01706E+01
 -1       720 3.02186E+01
 -1       721 3.08843E+01
 -1       722 3.04662E+01
 -1       723 3.04105E+01
 -1       724 3.08843E+01
 -1       725 3.04662E+01
 -1       726 3.04662E+01
 -1       727 3.03050E+01
 -1       728 3.03658E+01
 -1       729 3.03160E+01
 -1       730 3.03768E+01
 -1       731 3.03160E+01
 -1       732 3.02552E+01
 -1       733 3.02536E+01
 -1       734 3.01747E+01
 -1       735 3.01747E+01
 -1       736 3.01731E+01
 -1       737 3.04215E+01
 -1       738 3.03806E+01
 -1       739 3.10695E+01
 -1       740 3.10248E+01
 -1       741 2.97060E+01
 -1       742 3.03913E+01
 -1       743 2.97356E+01
 -1       744 2.98481E+01
 -1       745 2.94451E+01
 -1       746 2.94435E+01
 -1       747 3.17054E+01
 -1       748 3.32566E+01
 -1       749 3.13532E+01
 -1       750 2.98992E+01
 -1       751 2.99360E+01
 -1       752 2.97339E+01
 -1       753 3.03238E+01
 -1       754 3.01585E+01
 -1       755 3.01585E+01
 -1       756 3.00054E+01
 -1       757 3.12494E+01
 -1       758 3.10074E+01
 -1       759 3.08862E+01
 -1       760 3.10213E+01
 -1       761 3.04365E+01
 -1       762 3.02155E+01
 -1       763 2.99266E+01
 -1       764 2.99651E+01
 -1       765 3.02641E+01
 -1       766 3.05831E+01
 -1       767 3.00337E+01
 -1       768 3.00337E+01
 -1       769 2.96091E+01
 -1       770 3.05831E+01
 -1       771 3.05831E+01
 -1       772 3.03238E+01
 -1       773 3.00252E+01
 -1       774 2.94035E+01
 -1       775 3.00644E+01
 -1       776 3.00054E+01
 -1       777 2.87952E+01
 -1       778 3.67849E+01
 -1       779 3.05115E+01
 -1       780 3.06555E+01
 -1       781 3.02518E+01
 -1       782 3.24623E+01
 -1       783 3.15805E+01
 -1       784 2.82906E+01
 -1       785 2.84741E+01
 -1       786 2.92199E+01
 -1       787 3.00497E+01
 -1       788 3.11880E+01
 -1       789 3.04710E+01
 -1       790 3.13605E+01
 -1       791 3.13911E+01
 -1       792 3.04129E+01
 -1       793 3.02403E+01
 -1       794 3.02057E+01
 -1       795 3.02403E+01
 -1       796 3.01821E+01
 -1       797 3.13323E+01
 -1       798 3.02396E+01
 -1       799 3.01815E+01
 -1       800 3.01618E+01
 -1       801 3.01381E+01
 -1       802 3.02186E+01
 -1       803 3.14598E+01
 -1       804 3.15131E+01
 -1       805 3.04606E+01
 -1       806 3.14360E+01
 -1       807 3.04368E+01
 -1       808 3.13755E+01
 -1       809 3.04606E+01
 -1       810 3.05140E+01
 -1       811 3.02049E+01
 -1       812 3.02333E+01
 -1       813 3.03104E+01
 -1       814 3.04562E+01
 -1       815 3.14863E+01
 -1       816 3.16177E+01
 -1       817 3.15100E+01
 -1       818 3.15258E+01
 -1       819 3.03503E+01
 -1       820 3.15416E+01
 -1       821 3.02742E+01
 -1       822 3.14405E+01
 -1       823 3.02771E+01
 -1       824 3.01852E+01
 -1       825 3.14127E+01
 -1       826 3.03449E+01
 -1       827 3.01798E+01
 -1       828 3.02150E+01
 -1       829 3.01992E+01
 -1       830 3.01714E+01
 -1       831 3.14873E+01
 -1       832 3.15972E+01
 -1       833 3.15642E+01
 -1       834 3.14638E+01
 -1       835 3.02450E+01
 -1       836 3.16227E+01
 -1       837 3.02705E+01
 -1       838 3.16289E+01
 -1       839 3.02560E+01
 -1       840 3.01227E+01
 -1       841 3.15260E+01
 -1       842 3.03402E+01
 -1       843 3.02179E+01
 -1       844 3.02651E+01
 -1       845 3.01063E+01
 -1       846 3.01239E+01
 -1       847 3.07016E+01
 -1       848 3.25440E+01
 -1       849 3.23304E+01
 -1       850 3.18364E+01
 -1       851 3.17944E+01
 -1       852 3.23918E+01
 -1       853 3.15769E+01
 -1       854 3.14688E+01
 -1       855 3.03036E+01
 -1       856 3.15200E+01
 -1       857 3.02960E+01
 -1       858 3.14566E+01
 -1       859 3.03051E+01
 -1       860 3.09459E+01
 -1       861 3.02614E+01
 -1       862 3.02552E+01
 -1       863 3.15354E+01
 -1       864 3.02691E+01
 -1       865 3.02407E+01
 -1       866 3.01773E+01
 -1       867 3.02334E+01
 -1       868 3.02179E+01
 -1       869 3.02119E+01
 -1       870 3.01450E+01
 -1       871 3.02693E+01
 -1       872 2.82831E+01
 -1       873 2.82831E+01
 -1       874 2.34553E+01
 -1       875 2.33987E+01
 -1       876 2.33987E+01
 -1       877 2.31779E+01
 -1       878 2.33932E+01
 -1       879 2.17146E+01
 -1       880 2.19345E+01
 -1       881 2.05649E+01
 -1       882 2.16291E+01
 -1       883 2.02881E+01
 -1       884 2.02881E+01
 -1       885 1.89384E+01
 -1       886 1.97350E+01
 -1       887 2.76632E+01
 -1       888 2.80574E+01
 -1       889 1.90538E+01
 -1       890 2.65178E+01
 -1       891 2.72907E+01
 -1       892 2.59080E+01
 -1       893 2.77929E+01
 -1       894 2.54491E+01
 -1       895 1.72407E+01
 -1       896 2.07455E+01
 -1       897 2.19516E+01
 -1       898 1.84128E+01
 -1       899 2.50437E+01
 -1       900 2.54787E+01
 -1       901 2.99463E+01
 -1       902 2.90280E+01
 -1       903 3.00644E+01
 -1       904 3.05140E+01
 -1       905 3.03044E+01
 -1       906 3.03984E+01
 -1       907 3.13025E+01
 -1       908 3.07422E+01
 -1       909 3.03922E+01
 -1       910 3.00849E+01
 -1       911 3.01543E+01
 -1       912 3.01792E+01
 -1       913 2.97368E+01
 -1       914 3.06110E+01
 -1       915 2.99623E+01
 -1       916 3.03495E+01
 -1       917 3.03272E+01
 -1       918 3.21127E+01
 -1       919 3.03662E+01
 -1       920 3.00343E+01
 -1       921 3.14110E+01
 -1       922 3.05187E+01
 -1       923 3.05187E+01
 -1       924 3.03256E+01
 -1       925 3.01361E+01
 -1       926 3.01361E+01
 -1       927 3.01833E+01
 -1       928 3.05018E+01
 -1       929 3.04645E+01
 -1       930 3.00891E+01
 -1       931 3.01445E+01
 -1       932 3.05062E+01
 -1       933 3.05062E+01
 -1       934 3.04565E+01
 -1       935 3.04662E+01
 -1       936 3.01591E+01
 -1       937 3.01548E+01
 -1       938 3.04490E+01
 -1       939 3.04565E+01
 -1       940 3.01591E+01
 -1       941 3.07955E+01
 -1       942 2.91888E+01
 -1       943 3.03768E+01
 -1       944 3.03768E+01
 -1       945 3.03548E+01
 -1       946 3.04602E+01
 -1       947 3.02206E+01
 -1       948 3.01679E+01
 -1       949 2.92166E+01
 -1       950 3.00662E+01
 -1       951 3.00662E+01
 -1       952 3.04642E+01
 -1       953 3.07008E+01
 -1       954 2.99094E+01
 -1       955 3.05062E+01
 -1       956 3.06355E+01
 -1       957 3.05593E+01
 -1       958 3.02241E+01
 -1       959 3.22972E+01
 -1       960 3.03088E+01
 -1       961 2.98190E+01
 -1       962 2.98959E+01
 -1       963 3.00343E+01
 -1       964 3.05045E+01
 -1       965 3.13532E+01
 -1       966 3.05183E+01
 -1       967 3.00081E+01
 -1       968 3.11078E+01
 -1       969 3.13532E+01
 -1       970 3.18132E+01
 -1       971 3.06110E+01
 -1       972 3.11078E+01
 -1       973 2.96744E+01
 -1       974 2.94843E+01
 -1       975 2.94673E+01
 -1       976 3.05140E+01
 -1       977 2.18747E+01
 -1       978 3.04400E+01
 -1       979 3.01078E+01
 -1       980 3.02547E+01
 -1       981 3.22459E+01
 -1       982 3.94507E+01
 -1       983 2.99664E+01
 -1       984 3.01138E+01
 -1       985 3.01833E+01
 -1       986 3.01808E+01
 -1       987 3.24838E+01
 -1       988 3.20775E+01
 -1       989 3.02558E+01
 -1       990 3.03211E+01
 -1       991 3.00638E+01
 -1       992 3.01120E+01
 -1       993 3.01399E+01
 -1       994 2.99629E+01
 -1       995 3.01311E+01
 -1       996 3.01548E+01
 -1       997 3.03495E+01
 -1       998 3.02206E+01
 -1       999 3.08673E+01
 -1      1000 3.12296E+01
 -1      1001 3.25434E+01
 -1      1002 3.05831E+01
 -1      1003 2.82831E+01
 -1      1004 2.98219E+01
 -1      1005 3.89890E+01
 -1      1006 3.03843E+01
 -1      1007 3.16341E+01
 -1      1008 2.99623E+01
 -1      1009 3.01417E+01
 -1      1010 2.95444E+01
 -1      1011 3.16728E+01
 -1      1012 3.03844E+01
 -1      1013 3.01821E+01
 -1      1014 3.02984E+01
 -1      1015 3.00671E+01
 -1      1016 3.10911E+01
 -1      1017 3.03843E+01
 -1      1018 2.63496E+01
 -1      1019 2.36349E+01
 -1      1020 3.04041E+01
 -1      1021 2.91530E+01
 -1      1022 3.10911E+01
 -1      1023 2.98592E+01
 -1      1024 3.05406E+01
 -1      1025 3.15707E+01
 -1      1026 2.99463E+01
 -1      1027 2.77679E+01
 -1      1028 2.93039E+01
 -1      1029 2.88835E+01
 -1      1030 3.05573E+01
 -1      1031 3.04990E+01
 -1      1032 3.24779E+01
 -1      1033 3.04939E+01
 -1      1034 3.23914E+01
 -1      1035 3.25123E+01
 -1      1036 3.25303E+01
 -1      1037 3.25779E+01
 -1      1038 3.01050E+01
 -1      1039 3.01486E+01
 -1      1040 3.25909E+01
 -1      1041 3.27932E+01
 -1      1042 3.25438E+01
 -1      1043 3.27500E+01
 -1      1044 3.03189E+01
 -1      1045 3.28285E+01
 -1      1046 3.26621E+01
 -1      1047 3.01289E+01
 -1      1048 2.97239E+01
 -1      1049 3.03596E+01
 -1      1050 3.02475E+01
 -1      1051 3.02584E+01
 -1      1052 3.03020E+01
 -1      1053 2.62842E+01
 -1      1054 3.25913E+01
 -1      1055 3.03088E+01
 -1      1056 3.02293E+01
 -1      1057 3.02552E+01
 -1      1058 3.08625E+01
 -1      1059 3.01335E+01
 -1      1060 3.27498E+01
 -1      1061 3.09152E+01
 -1      1062 3.31848E+01
 -1      1063 3.41728E+01
 -1      1064 3.21251E+01
 -1      1065 3.02520E+01
 -1      1066 3.10911E+01
 -1      1067 3.74503E+01
 -1      1068 2.62859E+01
 -1      1069 2.36349E+01
 -1      1070 2.64118E+01
 -1      1071 2.70194E+01
 -1      1072 2.82831E+01
 -1      1073 2.51777E+01
 -1      1074 2.27984E+01
 -1      1075 2.27418E+01
 -1      1076 3.28040E+01
 -1      1077 3.32093E+01
 -1      1078 3.22459E+01
 -1      1079 3.74503E+01
 -1      1080 3.41728E+01
 -1      1081 3.41728E+01
 -1      1082 3.15805E+01
 -1      1083 3.25440E+01
 -1      1084 3.25440E+01
 -1      1085 3.31848E+01
 -1      1086 3.36788E+01
 -1      1087 3.36788E+01
 -1      1088 3.29673E+01
 -1      1089 3.27498E+01
 -1      1090 3.29673E+01
 -1      1091 3.19339E+01
 -1      1092 3.21602E+01
 -1      1093 3.14416E+01
 -1      1094 3.08521E+01
 -1      1095 3.14416E+01
 -1      1096 3.22972E+01
 -1      1097 3.22972E+01
 -1      1098 3.13030E+01
 -1      1099 3.13030E+01
 -1      1100 3.09397E+01
 -1      1101 3.19691E+01
 -1      1102 3.20552E+01
 -1      1103 3.20552E+01
 -1      1104 3.21251E+01
 -1      1105 3.21251E+01
 -1      1106 3.19691E+01
 -1      1107 3.22806E+01
 -1      1108 3.21013E+01
 -1      1109 3.21013E+01
 -1      1110 3.26561E+01
 -1      1111 3.24838E+01
 -1      1112 3.22806E+01
 -1      1113 3.28285E+01
 -1      1114 3.28285E+01
 -1      1115 3.26561E+01
 -1      1116 3.26621E+01
 -1      1117 3.27453E+01
 -1      1118 3.27453E+01
 -1      1119 3.26469E+01
 -1      1120 3.26030E+01
 -1      1121 3.26030E+01
 -1      1122 3.27500E+01
 -1      1123 3.27500E+01
 -1      1124 3.26469E+01
 -1      1125 3.26921E+01
 -1      1126 3.26704E+01
 -1      1127 3.26704E+01
 -1      1128 3.27932E+01
 -1      1129 3.27932E+01
 -1      1130 3.26921E+01
 -1      1131 3.25541E+01
 -1      1132 3.26618E+01
 -1      1133 3.26618E+01
 -1      1134 3.25779E+01
 -1      1135 3.25779E+01
 -1      1136 3.25541E+01
 -1      1137 3.24519E+01
 -1      1138 3.24846E+01
 -1      1139 3.24846E+01
 -1      1140 3.25123E+01
 -1      1141 3.25123E+01
 -1      1142 3.24519E+01
 -1      1143 3.24779E+01
 -1      1144 3.24951E+01
 -1      1145 3.24951E+01
 -1      1146 3.04990E+01
 -1      1147 3.14884E+01
 -1      1148 3.14884E+01
 -1      1149 3.14551E+01
 -1      1150 3.04089E+01
 -1      1151 3.04964E+01
 -1      1152 3.04964E+01
 -1      1153 3.04064E+01
 -1      1154 3.25913E+01
 -1      1155 3.25913E+01
 -1      1156 3.14551E+01
 -1      1157 3.08625E+01
 -1      1158 3.17269E+01
 -1      1159 3.17269E+01
 -1      1160 2.88835E+01
 -1      1161 2.98730E+01
 -1      1162 2.97204E+01
 -1      1163 3.07099E+01
 -1      1164 3.07099E+01
 -1      1165 3.07955E+01
 -1      1166 2.98395E+01
 -1      1167 2.98395E+01
 -1      1168 2.90629E+01
 -1      1169 2.99922E+01
 -1      1170 2.99922E+01
 -1      1171 2.64118E+01
 -1      1172 2.33987E+01
 -1      1173 2.33932E+01
 -1      1174 3.18865E+01
 -1      1175 2.28270E+01
 -1      1176 2.15837E+01
 -1      1177 3.19772E+01
 -1      1178 2.17146E+01
 -1      1179 2.16291E+01
 -1      1180 2.19345E+01
 -1      1181 3.17618E+01
 -1      1182 3.18927E+01
 -1      1183 2.10209E+01
 -1      1184 2.07441E+01
 -1      1185 3.10647E+01
 -1      1186 2.02881E+01
 -1      1187 1.97350E+01
 -1      1188 2.07490E+01
 -1      1189 3.04614E+01
 -1      1190 3.00053E+01
 -1      1191 1.95711E+01
 -1      1192 1.96865E+01
 -1      1193 2.93805E+01
 -1      1194 2.00329E+01
 -1      1195 2.90365E+01
 -1      1196 2.95630E+01
 -1      1197 2.93614E+01
 -1      1198 2.89890E+01
 -1      1199 2.94322E+01
 -1      1200 3.03051E+01
 -1      1201 3.06301E+01
 -1      1202 2.89685E+01
 -1      1203 2.85096E+01
 -1      1204 2.90271E+01
 -1      1205 3.05974E+01
 -1      1206 3.05769E+01
 -1      1207 2.89270E+01
 -1      1208 2.18796E+01
 -1      1209 2.89270E+01
 -1      1210 3.09358E+01
 -1      1211 3.13532E+01
 -1      1212 2.17569E+01
 -1      1213 2.29290E+01
 -1      1214 2.17569E+01
 -1      1215 3.12305E+01
 -1      1216 3.11078E+01
 -1      1217 2.19516E+01
 -1      1218 2.54787E+01
 -1      1219 2.22123E+01
 -1      1220 3.03911E+01
 -1      1221 2.94137E+01
 -1      1222 2.18395E+01
 -1      1223 2.50789E+01
 -1      1224 2.55139E+01
 -1      1225 2.88752E+01
 -1      1226 2.56710E+01
 -1      1227 2.88752E+01
 -1      1228 3.94507E+01
 -1      1229 4.10527E+01
 -1      1230 3.58483E+01
 -1      1231 3.92198E+01
 -1      1232 3.89890E+01
 -1      1233 3.92198E+01
 -1      1234 3.39568E+01
 -1      1235 3.46867E+01
 -1      1236 3.53116E+01
 -1      1237 3.53116E+01
 -1      1238 3.10092E+01
 -1      1239 3.43794E+01
 -1      1240 3.08070E+01
 -1      1241 2.61510E+01
 -1      1242 2.77692E+01
 -1      1243 2.77692E+01
 -1      1244 2.91888E+01
 -1      1245 2.61183E+01
 -1      1246 2.18519E+01
 -1      1247 2.63169E+01
 -1      1248 2.37420E+01
 -1      1249 2.69209E+01
 -1      1250 2.81743E+01
 -1      1251 2.60302E+01
 -1      1252 3.03238E+01
 -1      1253 2.71802E+01
 -1      1254 2.94331E+01
 -1      1255 2.94872E+01
 -1      1256 2.95462E+01
 -1      1257 3.00054E+01
 -1      1258 2.98841E+01
 -1      1259 2.94249E+01
 -1      1260 3.00054E+01
 -1      1261 2.99463E+01
 -1      1262 3.04565E+01
 -1      1263 3.05187E+01
 -1      1264 3.04751E+01
 -1      1265 2.99028E+01
 -1      1266 2.99028E+01
 -1      1267 2.98056E+01
 -1      1268 2.92561E+01
 -1      1269 2.94758E+01
 -1      1270 2.92476E+01
 -1      1271 2.96531E+01
 -1      1272 3.00252E+01
 -1      1273 2.81153E+01
 -1      1274 3.04092E+01
 -1      1275 3.03514E+01
 -1      1276 3.04562E+01
 -1      1277 3.05140E+01
 -1      1278 3.04092E+01
 -1      1279 3.02164E+01
 -1      1280 3.02741E+01
 -1      1281 3.01189E+01
 -1      1282 2.98791E+01
 -1      1283 3.01189E+01
 -1      1284 3.03150E+01
 -1      1285 3.03620E+01
 -1      1286 3.04116E+01
 -1      1287 3.04222E+01
 -1      1288 3.02426E+01
 -1      1289 3.01354E+01
 -1      1290 3.04368E+01
 -1      1291 3.03320E+01
 -1      1292 3.01630E+01
 -1      1293 3.03823E+01
 -1      1294 3.02002E+01
 -1      1295 3.02164E+01
 -1      1296 3.03459E+01
 -1      1297 3.00343E+01
 -1      1298 3.10224E+01
 -1      1299 3.05672E+01
 -1      1300 3.08474E+01
 -1      1301 3.08813E+01
 -1      1302 3.06012E+01
 -1      1303 3.02670E+01
 -1      1304 3.07221E+01
 -1      1305 3.02595E+01
 -1      1306 2.98384E+01
 -1      1307 3.04235E+01
 -1      1308 2.98431E+01
 -1      1309 3.04392E+01
 -1      1310 3.02642E+01
 -1      1311 3.01454E+01
 -1      1312 3.04485E+01
 -1      1313 3.05956E+01
 -1      1314 3.03019E+01
 -1      1315 3.04566E+01
 -1      1316 3.06032E+01
 -1      1317 3.04622E+01
 -1      1318 3.01126E+01
 -1      1319 3.02407E+01
 -1      1320 3.01241E+01
 -1      1321 3.02757E+01
 -1      1322 3.01504E+01
 -1      1323 3.01196E+01
 -1      1324 3.01667E+01
 -1      1325 3.01321E+01
 -1      1326 3.01069E+01
 -1      1327 3.01416E+01
 -1      1328 3.01342E+01
 -1      1329 3.00870E+01
 -1      1330 3.01105E+01
 -1      1331 3.01361E+01
 -1      1332 3.01105E+01
 -1      1333 3.01325E+01
 -1      1334 3.01675E+01
 -1      1335 3.01800E+01
 -1      1336 3.13190E+01
 -1      1337 3.13323E+01
 -1      1338 3.13063E+01
 -1      1339 3.01692E+01
 -1      1340 3.01241E+01
 -1      1341 3.01706E+01
 -1      1342 3.01807E+01
 -1      1343 3.01815E+01
 -1      1344 3.01739E+01
 -1      1345 3.02866E+01
 -1      1346 2.98495E+01
 -1      1347 2.98855E+01
 -1      1348 3.03226E+01
 -1      1349 3.04139E+01
 -1      1350 3.05267E+01
 -1      1351 2.97779E+01
 -1      1352 2.99266E+01
 -1      1353 3.04550E+01
 -1      1354 2.99623E+01
 -1      1355 3.02866E+01
 -1      1356 3.04886E+01
 -1      1357 3.06110E+01
 -1      1358 3.04886E+01
 -1      1359 3.02866E+01
 -1      1360 2.98921E+01
 -1      1361 2.98921E+01
 -1      1362 3.05267E+01
 -1      1363 3.10911E+01
 -1      1364 3.03384E+01
 -1      1365 3.12200E+01
 -1      1366 3.12311E+01
 -1      1367 3.03495E+01
 -1      1368 3.03384E+01
 -1      1369 3.03669E+01
 -1      1370 3.12485E+01
 -1      1371 3.02850E+01
 -1      1372 3.02587E+01
 -1      1373 3.01943E+01
 -1      1374 3.02206E+01
 -1      1375 3.02850E+01
 -1      1376 3.02761E+01
 -1      1377 3.02850E+01
 -1      1378 3.08691E+01
 -1      1379 3.14353E+01
 -1      1380 3.14464E+01
 -1      1381 3.10286E+01
 -1      1382 3.01669E+01
 -1      1383 3.01872E+01
 -1      1384 3.05579E+01
 -1      1385 3.07370E+01
 -1      1386 3.08594E+01
 -1      1387 2.99266E+01
 -1      1388 3.05187E+01
 -1      1389 3.04222E+01
 -1      1390 3.04916E+01
 -1      1391 3.04916E+01
 -1      1392 3.02154E+01
 -1      1393 3.02634E+01
 -1      1394 3.04845E+01
 -1      1395 3.05116E+01
 -1      1396 3.09288E+01
 -1      1397 3.09360E+01
 -1      1398 3.06806E+01
 -1      1399 3.01011E+01
 -1      1400 3.01011E+01
 -1      1401 3.01105E+01
 -1      1402 3.00662E+01
 -1      1403 3.01011E+01
 -1      1404 3.00975E+01
 -1      1405 3.03425E+01
 -1      1406 3.04831E+01
 -1      1407 3.03239E+01
 -1      1408 3.03448E+01
 -1      1409 3.05040E+01
 -1      1410 3.01833E+01
 -1      1411 3.03239E+01
 -1      1412 3.01236E+01
 -1      1413 3.02850E+01
 -1      1414 3.01236E+01
 -1      1415 3.05031E+01
 -1      1416 3.05062E+01
 -1      1417 3.05040E+01
 -1      1418 3.05709E+01
 -1      1419 3.05686E+01
 -1      1420 3.05700E+01
 -1      1421 3.00748E+01
 -1      1422 3.01591E+01
 -1      1423 3.03254E+01
 -1      1424 3.05062E+01
 -1      1425 3.03254E+01
 -1      1426 3.02967E+01
 -1      1427 3.04776E+01
 -1      1428 3.01422E+01
 -1      1429 3.03231E+01
 -1      1430 3.00537E+01
 -1      1431 3.02060E+01
 -1      1432 3.00514E+01
 -1      1433 3.05062E+01
 -1      1434 3.04852E+01
 -1      1435 3.05825E+01
 -1      1436 3.06035E+01
 -1      1437 3.06035E+01
 -1      1438 3.01019E+01
 -1      1439 3.04614E+01
 -1      1440 3.03127E+01
 -1      1441 3.03078E+01
 -1      1442 3.04565E+01
 -1      1443 3.02569E+01
 -1      1444 3.04056E+01
 -1      1445 3.10647E+01
 -1      1446 3.03658E+01
 -1      1447 3.04167E+01
 -1      1448 3.10248E+01
 -1      1449 3.03040E+01
 -1      1450 3.02569E+01
 -1      1451 3.01548E+01
 -1      1452 3.03019E+01
 -1      1453 3.01105E+01
 -1      1454 3.00588E+01
 -1      1455 3.02071E+01
 -1      1456 3.03050E+01
 -1      1457 3.02186E+01
 -1      1458 2.84784E+01
 -1      1459 2.92817E+01
 -1      1460 2.83257E+01
 -1      1461 2.70588E+01
 -1      1462 3.03768E+01
 -1      1463 3.03658E+01
 -1      1464 3.02724E+01
 -1      1465 3.02724E+01
 -1      1466 3.03160E+01
 -1      1467 3.03144E+01
 -1      1468 3.02100E+01
 -1      1469 3.03031E+01
 -1      1470 3.02422E+01
 -1      1471 3.02407E+01
 -1      1472 3.03806E+01
 -1      1473 3.01848E+01
 -1      1474 3.01868E+01
 -1      1475 3.02363E+01
 -1      1476 3.02382E+01
 -1      1477 3.02708E+01
 -1      1478 3.02884E+01
 -1      1479 3.02382E+01
 -1      1480 3.02647E+01
 -1      1481 3.03149E+01
 -1      1482 3.02804E+01
 -1      1483 3.01841E+01
 -1      1484 3.01841E+01
 -1      1485 3.02284E+01
 -1      1486 3.13050E+01
 -1      1487 3.13641E+01
 -1      1488 3.14229E+01
 -1      1489 3.13955E+01
 -1      1490 3.05328E+01
 -1      1491 3.05114E+01
 -1      1492 3.12606E+01
 -1      1493 3.02664E+01
 -1      1494 3.10186E+01
 -1      1495 3.02664E+01
 -1      1496 3.03088E+01
 -1      1497 3.01456E+01
 -1      1498 3.09402E+01
 -1      1499 3.01482E+01
 -1      1500 3.02267E+01
 -1      1501 3.02691E+01
 -1      1502 3.03149E+01
 -1      1503 3.02211E+01
 -1      1504 3.02273E+01
 -1      1505 2.98574E+01
 -1      1506 2.99651E+01
 -1      1507 2.99620E+01
 -1      1508 3.00004E+01
 -1      1509 3.05980E+01
 -1      1510 2.98099E+01
 -1      1511 3.02994E+01
 -1      1512 3.01949E+01
 -1      1513 3.01089E+01
 -1      1514 3.06806E+01
 -1      1515 3.08594E+01
 -1      1516 3.01828E+01
 -1      1517 3.10558E+01
 -1      1518 3.12118E+01
 -1      1519 3.01427E+01
 -1      1520 2.98184E+01
 -1      1521 2.95577E+01
 -1      1522 2.56795E+01
 -1      1523 2.93187E+01
 -1      1524 2.97233E+01
 -1      1525 3.14959E+01
 -1      1526 3.15131E+01
 -1      1527 3.11009E+01
 -1      1528 3.14360E+01
 -1      1529 3.02739E+01
 -1      1530 3.01813E+01
 -1      1531 3.03474E+01
 -1      1532 3.06776E+01
 -1      1533 3.05115E+01
 -1      1534 3.02553E+01
 -1      1535 3.03479E+01
 -1      1536 3.03299E+01
 -1      1537 3.04221E+01
 -1      1538 3.18124E+01
 -1      1539 3.17944E+01
 -1      1540 3.20500E+01
 -1      1541 3.09444E+01
 -1      1542 3.08709E+01
 -1      1543 3.47792E+01
 -1      1544 3.11768E+01
 -1      1545 3.45484E+01
 -1      1546 3.02376E+01
 -1      1547 3.03195E+01
 -1      1548 3.03025E+01
 -1      1549 3.10092E+01
 -1      1550 3.00401E+01
 -1      1551 3.01485E+01
 -1      1552 3.02367E+01
 -1      1553 3.01806E+01
 -1      1554 3.02154E+01
 -1      1555 3.12526E+01
 -1      1556 3.13458E+01
 -1      1557 3.13755E+01
 -1      1558 3.14127E+01
 -1      1559 3.01557E+01
 -1      1560 3.11292E+01
 -1      1561 3.02396E+01
 -1      1562 3.11880E+01
 -1      1563 3.02403E+01
 -1      1564 3.14787E+01
 -1      1565 3.03626E+01
 -1      1566 3.02688E+01
 -1      1567 3.00879E+01
 -1      1568 3.01260E+01
 -1      1569 3.01798E+01
 -1      1570 3.01852E+01
 -1      1571 3.01992E+01
 -1      1572 3.13212E+01
 -1      1573 3.14526E+01
 -1      1574 3.13889E+01
 -1      1575 3.15258E+01
 -1      1576 3.01107E+01
 -1      1577 3.00470E+01
 -1      1578 3.01430E+01
 -1      1579 3.01948E+01
 -1      1580 3.02166E+01
 -1      1581 3.13610E+01
 -1      1582 3.14405E+01
 -1      1583 3.14246E+01
 -1      1584 3.15260E+01
 -1      1585 3.03669E+01
 -1      1586 3.06084E+01
 -1      1587 3.17054E+01
 -1      1588 3.06258E+01
 -1      1589 3.10485E+01
 -1      1590 3.06258E+01
 -1      1591 3.03843E+01
 -1      1592 3.01246E+01
 -1      1593 3.01611E+01
 -1      1594 3.10911E+01
 -1      1595 3.04751E+01
 -1      1596 3.10911E+01
 -1      1597 2.81480E+01
 -1      1598 2.88571E+01
 -1      1599 3.15769E+01
 -1      1600 3.01999E+01
 -1      1601 3.08158E+01
 -1      1602 3.07016E+01
 -1      1603 3.09768E+01
 -1      1604 3.05980E+01
 -1      1605 3.06198E+01
 -1      1606 3.01268E+01
 -1      1607 3.05056E+01
 -1      1608 2.95816E+01
 -1      1609 2.99223E+01
 -1      1610 2.96251E+01
 -1      1611 2.99306E+01
 -1      1612 3.05489E+01
 -1      1613 2.85359E+01
 -1      1614 2.90937E+01
 -1      1615 3.14859E+01
 -1      1616 3.02119E+01
 -1      1617 3.02338E+01
 -1      1618 3.13700E+01
 -1      1619 3.75292E+01
 -1      1620 3.89890E+01
 -1      1621 4.26547E+01
 -1      1622 4.26547E+01
 -1      1623 3.43784E+01
 -1      1624 3.50122E+01
 -1      1625 4.10527E+01
 -1      1626 4.26547E+01
 -1      1627 4.26547E+01
 -1      1628 3.89890E+01
 -1      1629 3.92198E+01
 -1      1630 3.92198E+01
 -1      1631 3.94507E+01
 -1      1632 4.10527E+01
 -1      1633 3.75292E+01
 -1      1634 3.82591E+01
 -1      1635 3.82591E+01
 -1      1636 3.89890E+01
 -1      1637 3.89890E+01
 -1      1638 3.65876E+01
 -1      1639 3.75292E+01
 -1      1640 3.75292E+01
 -1      1641 1.47875E+01
 -1      1642 2.63496E+01
 -1      1643 2.91888E+01
 -1      1644 2.71528E+01
 -1      1645 2.51777E+01
 -1      1646 2.29313E+01
 -1      1647 2.71528E+01
 -1      1648 2.77692E+01
 -1      1649 2.91888E+01
 -1      1650 2.63496E+01
 -1      1651 2.26974E+01
 -1      1652 2.61510E+01
 -1      1653 2.61510E+01
 -1      1654 2.75707E+01
 -1      1655 1.69164E+01
 -1      1656 1.92888E+01
 -1      1657 1.82324E+01
 -1      1658 1.61035E+01
 -1      1659 2.18846E+01
 -1      1660 2.37838E+01
 -1      1661 2.37838E+01
 -1      1662 1.92824E+01
 -1      1663 2.93805E+01
 -1      1664 3.02595E+01
 -1      1665 2.98384E+01
 -1      1666 2.85839E+01
 -1      1667 3.01848E+01
 -1      1668 3.03051E+01
 -1      1669 2.89303E+01
 -1      1670 2.55139E+01
 -1      1671 2.56710E+01
 -1      1672 2.56795E+01
 -1      1673 3.10647E+01
 -1      1674 3.04614E+01
 -1      1675 3.10647E+01
 -1      1676 3.06301E+01
 -1      1677 2.88611E+01
 -1      1678 3.05974E+01
 -1      1679 3.05769E+01
 -1      1680 2.80677E+01
 -1      1681 3.07155E+01
 -1      1682 2.56358E+01
 -1      1683 2.88752E+01
 -1      1684 2.74578E+01
 -1      1685 2.24259E+01
 -1      1686 2.85361E+01
 -1      1687 3.39568E+01
 -1      1688 3.01800E+01
 -1      1689 3.01675E+01
 -1      1690 3.01808E+01
 -1      1691 3.00005E+01
 -1      1692 2.80881E+01
 -1      1693 3.00889E+01
 -1      1694 3.00889E+01
 -1      1695 3.01239E+01
 -1      1696 3.92198E+01
 -1      1697 3.89890E+01
 -1      1698 3.45484E+01
 -1      1699 3.45484E+01
 -1      1700 3.47792E+01
 -1      1701 2.69969E+01
 -1      1702 2.69642E+01
 -1      1703 2.69969E+01
 -1      1704 2.63169E+01
 -1      1705 2.63496E+01
 -1      1706 3.02396E+01
 -1      1707 3.13323E+01
 -1      1708 3.11880E+01
 -1      1709 3.22806E+01
 -1      1710 3.05140E+01
 -1      1711 3.05140E+01
 -1      1712 3.04092E+01
 -1      1713 3.05140E+01
 -1      1714 3.05140E+01
 -1      1715 3.00343E+01
 -1      1716 3.00343E+01
 -1      1717 2.99266E+01
 -1      1718 3.01011E+01
 -1      1719 3.01361E+01
 -1      1720 3.00964E+01
 -1      1721 3.03913E+01
 -1      1722 3.11078E+01
 -1      1723 3.75292E+01
 -1      1724 3.01852E+01
 -1      1725 3.00982E+01
 -1      1726 3.01122E+01
 -1      1727 3.01992E+01
 -1      1728 2.98959E+01
 -1      1729 2.99651E+01
 -1      1730 2.98791E+01
 -1      1731 2.98099E+01
 -1      1732 3.01246E+01
 -1      1733 3.02186E+01
 -1      1734 3.01747E+01
 -1      1735 3.00807E+01
 -1      1736 3.67589E+01
 -1      1737 2.99266E+01
 -1      1738 2.98190E+01
 -1      1739 2.97779E+01
 -1      1740 3.00999E+01
 -1      1741 3.00999E+01
 -1      1742 3.01813E+01
 -1      1743 3.02547E+01
 -1      1744 3.03253E+01
 -1      1745 3.02518E+01
 -1      1746 3.01443E+01
 -1      1747 3.01318E+01
 -1      1748 3.16177E+01
 -1      1749 3.15258E+01
 -1      1750 3.02771E+01
 -1      1751 3.04179E+01
 -1      1752 3.04640E+01
 -1      1753 3.06776E+01
 -1      1754 2.43758E+01
 -1      1755 3.03020E+01
 -1      1756 3.15260E+01
 -1      1757 3.14229E+01
 -1      1758 3.02552E+01
 -1      1759 3.27500E+01
 -1      1760 3.26469E+01
 -1      1761 3.01120E+01
 -1      1762 3.25779E+01
 -1      1763 3.14127E+01
 -1      1764 3.13889E+01
 -1      1765 3.25541E+01
 -1      1766 3.00992E+01
 -1      1767 3.00971E+01
 -1      1768 3.14411E+01
 -1      1769 3.14724E+01
 -1      1770 3.01203E+01
 -1      1771 3.24838E+01
 -1      1772 3.13323E+01
 -1      1773 3.27390E+01
 -1      1774 2.26853E+01
 -1      1775 3.01821E+01
 -1      1776 3.67589E+01
 -1      1777 3.04562E+01
 -1      1778 3.03514E+01
 -1      1779 3.01089E+01
 -1      1780 3.11869E+01
 -1      1781 3.14859E+01
 -1      1782 2.93039E+01
 -1      1783 2.96251E+01
 -1      1784 2.99028E+01
 -1      1785 2.95816E+01
 -1      1786 2.95816E+01
 -1      1787 2.98592E+01
 -1      1788 3.02791E+01
 -1      1789 3.02918E+01
 -1      1790 3.01275E+01
 -1      1791 3.01148E+01
 -1      1792 3.00741E+01
 -1      1793 3.14611E+01
 -1      1794 3.14863E+01
 -1      1795 3.27932E+01
 -1      1796 3.01739E+01
 -1      1797 3.03226E+01
 -1      1798 3.01442E+01
 -1      1799 3.01548E+01
 -1      1800 3.00588E+01
 -1      1801 3.00483E+01
 -1      1802 3.02223E+01
 -1      1803 3.01189E+01
 -1      1804 3.02741E+01
 -1      1805 3.05115E+01
 -1      1806 3.02475E+01
 -1      1807 3.02186E+01
 -1      1808 3.03402E+01
 -1      1809 3.02166E+01
 -1      1810 3.23183E+01
 -1      1811 3.04606E+01
 -1      1812 3.14598E+01
 -1      1813 3.15131E+01
 -1      1814 3.17944E+01
 -1      1815 3.31848E+01
 -1      1816 3.18124E+01
 -1      1817 3.15258E+01
 -1      1818 3.02584E+01
 -1      1819 3.02742E+01
 -1      1820 3.13843E+01
 -1      1821 3.21013E+01
 -1      1822 3.21251E+01
 -1      1823 2.63496E+01
 -1      1824 3.79980E+01
 -1      1825 3.43205E+01
 -1      1826 3.45816E+01
 -1      1827 3.72681E+01
 -1      1828 3.14360E+01
 -1      1829 3.04368E+01
 -1      1830 3.03596E+01
 -1      1831 3.00656E+01
 -1      1832 3.14426E+01
 -1      1833 3.06110E+01
 -1      1834 3.04460E+01
 -1      1835 3.04235E+01
 -1      1836 2.95444E+01
 -1      1837 2.95444E+01
 -1      1838 3.26921E+01
 -1      1839 3.14405E+01
 -1      1840 2.99620E+01
 -1      1841 3.02994E+01
 -1      1842 3.01949E+01
 -1      1843 2.98574E+01
 -1      1844 3.07016E+01
 -1      1845 3.18364E+01
 -1      1846 3.36788E+01
 -1      1847 3.25440E+01
 -1      1848 3.24519E+01
 -1      1849 3.13755E+01
 -1      1850 3.25123E+01
 -1      1851 3.04041E+01
 -1      1852 2.98190E+01
 -1      1853 3.02664E+01
 -1      1854 3.03088E+01
 -1      1855 3.02691E+01
 -1      1856 3.02267E+01
 -1      1857 3.00928E+01
 -1      1858 3.00879E+01
 -1      1859 3.02293E+01
 -1      1860 3.15202E+01
 -1      1861 3.01815E+01
 -1      1862 3.01807E+01
 -1      1863 3.02367E+01
 -1      1864 3.01806E+01
 -1      1865 3.14688E+01
 -1      1866 3.11880E+01
 -1      1867 3.20775E+01
 -1      1868 3.94507E+01
 -1      1869 3.04990E+01
 -1      1870 3.04964E+01
 -1      1871 3.01078E+01
 -1      1872 3.51829E+01
 -1      1873 3.02106E+01
 -1      1874 3.15200E+01
 -1      1875 2.81743E+01
 -1      1876 2.82070E+01
 -1      1877 3.09444E+01
 -1      1878 3.04939E+01
 -1      1879 3.01949E+01
 -1      1880 3.01184E+01
 -1      1881 3.02691E+01
 -1      1882 3.01999E+01
 -1      1883 3.04751E+01
 -1      1884 2.99306E+01
 -1      1885 3.00497E+01
 -1      1886 3.01692E+01
 -1      1887 3.01241E+01
 -1      1888 3.02520E+01
 -1      1889 3.03144E+01
 -1      1890 3.03768E+01
 -1      1891 3.03144E+01
 -1      1892 3.02984E+01
 -1      1893 3.12118E+01
 -1      1894 3.04221E+01
 -1      1895 3.03299E+01
 -1      1896 3.00053E+01
 -1      1897 3.01833E+01
 -1      1898 3.01452E+01
 -1      1899 3.00368E+01
 -1      1900 3.00748E+01
 -1      1901 3.02333E+01
 -1      1902 3.02057E+01
 -1      1903 3.29673E+01
 -1      1904 3.27498E+01
 -1      1905 3.15769E+01
 -1      1906 3.14416E+01
 -1      1907 3.03626E+01
 -1      1908 3.02273E+01
 -1      1909 3.03449E+01
 -1      1910 3.36956E+01
 -1      1911 3.14566E+01
 -1      1912 3.89890E+01
 -1      1913 3.01103E+01
 -1      1914 3.10911E+01
 -1      1915 3.04751E+01
 -1      1916 3.03189E+01
 -1      1917 3.04064E+01
 -1      1918 3.02119E+01
 -1      1919 3.01454E+01
 -1      1920 3.01105E+01
 -1      1921 3.01548E+01
 -1      1922 3.01355E+01
 -1      1923 3.01992E+01
 -1      1924 3.19691E+01
 -1      1925 3.02164E+01
 -1      1926 3.04562E+01
 -1      1927 2.64118E+01
 -1      1928 3.01618E+01
 -1      1929 3.02422E+01
 -1      1930 3.02552E+01
 -1      1931 3.02403E+01
 -1      1932 3.30814E+01
 -1      1933 3.02694E+01
 -1      1934 3.02865E+01
 -1      1935 3.02553E+01
 -1      1936 3.02382E+01
 -1      1937 3.01442E+01
 -1      1938 3.01268E+01
 -1      1939 3.06198E+01
 -1      1940 3.06198E+01
 -1      1941 3.04550E+01
 -1      1942 3.10911E+01
 -1      1943 3.05267E+01
 -1      1944 2.98906E+01
 -1      1945 3.04939E+01
 -1      1946 3.15805E+01
 -1      1947 3.03019E+01
 -1      1948 3.16289E+01
 -1      1949 3.28222E+01
 -1      1950 3.09152E+01
 -1      1951 3.01920E+01
 -1      1952 3.02520E+01
 -1      1953 3.04064E+01
 -1      1954 3.05489E+01
 -1      1955 3.12284E+01
 -1      1956 3.36956E+01
 -1      1957 3.03195E+01
 -1      1958 3.02407E+01
 -1      1959 3.02386E+01
 -1      1960 3.03226E+01
 -1      1961 3.06110E+01
 -1      1962 3.00497E+01
 -1      1963 3.10186E+01
 -1      1964 3.20552E+01
 -1      1965 3.12494E+01
 -1      1966 3.02129E+01
 -1      1967 3.04886E+01
 -1      1968 3.02407E+01
 -1      1969 3.02804E+01
 -1      1970 3.02724E+01
 -1      1971 2.96251E+01
 -1      1972 2.99463E+01
 -1      1973 3.00054E+01
 -1      1974 2.99463E+01
 -1      1975 3.00054E+01
 -1      1976 3.02179E+01
 -1      1977 3.03479E+01
 -1      1978 3.00644E+01
 -1      1979 3.01399E+01
 -1      1980 2.94035E+01
 -1      1981 3.05831E+01
 -1      1982 3.05831E+01
 -1      1983 2.87067E+01
 -1      1984 3.11329E+01
 -1      1985 3.11329E+01
 -1      1986 2.90271E+01
 -1      1987 3.06355E+01
 -1      1988 3.07008E+01
 -1      1989 2.94322E+01
 -1      1990 3.00366E+01
 -1      1991 3.28285E+01
 -1      1992 3.00514E+01
 -1      1993 3.02884E+01
 -1      1994 3.03626E+01
 -1      1995 3.25913E+01
 -1      1996 3.03984E+01
 -1      1997 3.03620E+01
 -1      1998 2.98334E+01
 -1      1999 3.01821E+01
 -1      2000 2.98395E+01
 -1      2001 2.98395E+01
 -1      2002 3.02558E+01
 -1      2003 3.03050E+01
 -1      2004 3.03050E+01
 -1      2005 3.02164E+01
 -1      2006 3.01706E+01
 -1      2007 3.10911E+01
 -1      2008 3.21602E+01
 -1      2009 3.02804E+01
 -1      2010 3.10213E+01
 -1      2011 3.01482E+01
 -1      2012 3.03554E+01
 -1      2013 2.65916E+01
 -1      2014 3.15707E+01
 -1      2015 4.10527E+01
 -1      2016 3.74503E+01
 -1      2017 3.13030E+01
 -1      2018 3.19339E+01
 -1      2019 3.09397E+01
 -1      2020 3.01499E+01
 -1      2021 3.02179E+01
 -1      2022 3.01324E+01
 -1      2023 3.03088E+01
 -1      2024 3.01104E+01
 -1      2025 3.03548E+01
 -1      2026 2.97204E+01
 -1      2027 3.04550E+01
 -1      2028 2.71867E+01
 -1      2029 3.03239E+01
 -1      2030 3.02403E+01
 -1      2031 3.02552E+01
 -1      2032 3.01591E+01
 -1      2033 3.02426E+01
 -1      2034 3.01825E+01
 -1      2035 3.03160E+01
 -1      2036 2.98769E+01
 -1      2037 3.04710E+01
 -1      2038 4.26547E+01
 -1      2039 4.26547E+01
 -1      2040 3.74503E+01
 -1      2041 3.02062E+01
 -1      2042 3.00054E+01
 -1      2043 3.01236E+01
 -1      2044 3.01833E+01
 -1      2045 3.01339E+01
 -1      2046 3.05187E+01
 -1      2047 3.05187E+01
 -1      2048 3.04222E+01
 -1      2049 3.04116E+01
 -1      2050 2.99623E+01
 -1      2051 3.01476E+01
 -1      2052 3.26561E+01
 -1      2053 3.08521E+01
 -1      2054 2.45548E+01
 -1      2055 3.03238E+01
 -1      2056 3.03984E+01
 -1      2057 3.25909E+01
 -1      2058 3.23914E+01
 -1      2059 2.92817E+01
 -1      2060 3.05573E+01
 -1      2061 3.04493E+01
 -1      2062 3.04256E+01
 -1      2063 3.02733E+01
 -1      2064 3.01773E+01
 -1      2065 4.10527E+01
 -1      2066 3.02071E+01
 -1      2067 3.02642E+01
 -1      2068 3.02866E+01
 -1      2069 3.01798E+01
 -1      2070 3.03339E+01
 -1      2071 3.03513E+01
 -1      2072 2.87952E+01
 -1      2073 3.03211E+01
 -1      2074 3.25700E+01
 -1      2075 3.25303E+01
 -1      2076 3.03626E+01
 -1      2077 3.24779E+01
 -1      2078 3.14884E+01
 -1      2079 2.77692E+01
 -1      2080 2.91888E+01
 -1      2081 2.77692E+01
 -1      2082 2.91888E+01
 -1      2083 2.91888E+01
 -1      2084 3.03149E+01
 -1      2085 3.01361E+01
 -1      2086 3.08474E+01
 -1      2087 3.03922E+01
 -1      2088 3.02670E+01
 -1      2089 3.07221E+01
 -1      2090 3.01763E+01
 -1      2091 3.02850E+01
 -1      2092 3.03495E+01
 -1      2093 3.02407E+01
 -1      2094 3.03051E+01
 -1      2095 3.02363E+01
 -1      2096 2.85359E+01
 -1      2097 3.18132E+01
 -1      2098 3.02338E+01
 -1      2099 3.01486E+01
 -1      2100 3.05267E+01
 -1      2101 3.14551E+01
 -1      2102 3.00644E+01
 -1      2103 3.05187E+01
 -1      2104 3.05187E+01
 -1      2105 3.05573E+01
 -1      2106 3.07099E+01
 -1      2107 2.91888E+01
 -1      2108 3.03256E+01
 -1      2109 3.01669E+01
 -1      2110 3.03459E+01
 -1      2111 3.04125E+01
 -1      2112 3.02569E+01
 -1      2113 2.77060E+01
 -1      2114 2.95462E+01
 -1      2115 3.02850E+01
 -1      2116 3.03495E+01
 -1      2117 3.03510E+01
 -1      2118 3.03448E+01
 -1      2119 3.26291E+01
 -1      2120 2.97204E+01
 -1      2121 3.02757E+01
 -1      2122 3.07308E+01
 -1      2123 3.02953E+01
 -1      2124 3.26704E+01
 -1      2125 3.24846E+01
 -1      2126 2.94137E+01
 -1      2127 2.96746E+01
 -1      2128 2.97058E+01
 -1      2129 3.03823E+01
 -1      2130 3.05489E+01
 -1      2131 3.04542E+01
 -1      2132 3.04852E+01
 -1      2133 3.03043E+01
 -1      2134 3.03620E+01
 -1      2135 3.04485E+01
 -1      2136 3.01591E+01
 -1      2137 3.04916E+01
 -1      2138 3.08594E+01
 -1      2139 3.06110E+01
 -1      2140 3.06110E+01
 -1      2141 3.08056E+01
 -1      2142 3.05928E+01
 -1      2143 3.05641E+01
 -1      2144 3.02407E+01
 -1      2145 2.76433E+01
 -1      2146 3.05406E+01
 -1      2147 3.08158E+01
 -1      2148 3.03211E+01
 -1      2149 3.05467E+01
 -1      2150 3.18865E+01
 -1      2151 3.18865E+01
 -1      2152 3.34378E+01
 -1      2153 3.15805E+01
 -1      2154 3.25434E+01
 -1      2155 3.26618E+01
 -1      2156 3.07155E+01
 -1      2157 3.41982E+01
 -1      2158 3.39568E+01
 -1      2159 3.02063E+01
 -1      2160 3.02708E+01
 -1      2161 3.03095E+01
 -1      2162 3.03384E+01
 -1      2163 3.03495E+01
 -1      2164 3.12311E+01
 -1      2165 3.04089E+01
 -1      2166 2.98401E+01
 -1      2167 3.02795E+01
 -1      2168 3.11612E+01
 -1      2169 3.00964E+01
 -1      2170 3.02191E+01
 -1      2171 3.12305E+01
 -1      2172 3.13532E+01
 -1      2173 3.07955E+01
 -1      2174 3.07955E+01
 -1      2175 3.04964E+01
 -1      2176 3.24951E+01
 -1      2177 3.06032E+01
 -1      2178 3.07422E+01
 -1      2179 2.83524E+01
 -1      2180 3.22459E+01
 -1      2181 2.97779E+01
 -1      2182 3.13700E+01
 -1      2183 2.90629E+01
 -1      2184 3.02239E+01
 -1      2185 3.04604E+01
 -1      2186 3.06191E+01
 -1      2187 3.41728E+01
 -1      2188 3.22972E+01
 -1      2189 2.98921E+01
 -1      2190 3.25434E+01
 -1      2191 3.25434E+01
 -1      2192 3.02970E+01
 -1      2193 3.03806E+01
 -1      2194 3.01888E+01
 -1      2195 3.03446E+01
 -1      2196 3.07016E+01
 -1      2197 3.04566E+01
 -1      2198 3.04642E+01
 -1      2199 3.04602E+01
 -1      2200 3.03149E+01
 -1      2201 3.21127E+01
 -1      2202 3.21127E+01
 -1      2203 3.21127E+01
 -1      2204 2.93810E+01
 -1      2205 3.08625E+01
 -1      2206 2.60366E+01
 -1      2207 2.82535E+01
 -1      2208 3.07157E+01
 -1      2209 2.78752E+01
 -1      2210 2.82831E+01
 -1      2211 3.14551E+01
 -1      2212 3.05102E+01
 -1      2213 3.05040E+01
 -1      2214 2.93187E+01
 -1      2215 2.95577E+01
 -1      2216 2.98481E+01
 -1      2217 2.96091E+01
 -1      2218 3.04614E+01
 -1      2219 3.11078E+01
 -1      2220 3.08594E+01
 -1      2221 3.03844E+01
 -1      2222 3.03806E+01
 -1      2223 3.10286E+01
 -1      2224 3.02865E+01
 -1      2225 3.02866E+01
 -1      2226 3.17269E+01
 -1      2227 3.18927E+01
 -1      2228 2.98662E+01
 -1      2229 3.08673E+01
 -1      2230 3.04392E+01
 -1      2231 2.91530E+01
 -1      2232 3.00337E+01
 -1      2233 2.98056E+01
 -1      2234 3.02025E+01
 -1      2235 3.04105E+01
 -1      2236 3.04105E+01
 -1      2237 3.05062E+01
 -1      2238 3.05062E+01
 -1      2239 3.05062E+01
 -1      2240 3.16728E+01
 -1      2241 3.04542E+01
 -1      2242 3.03768E+01
 -1      2243 3.03658E+01
 -1      2244 2.60366E+01
 -1      2245 3.04614E+01
 -1      2246 3.04614E+01
 -1      2247 3.04916E+01
 -1      2248 2.91530E+01
 -1      2249 3.06806E+01
 -1      2250 3.50122E+01
 -1      2251 3.39568E+01
 -1      2252 2.98497E+01
 -1      2253 3.02710E+01
 -1      2254 3.06035E+01
 -1      2255 2.99623E+01
 -1      2256 3.05974E+01
 -1      2257 3.06035E+01
 -1      2258 3.08474E+01
 -1      2259 2.71802E+01
 -1      2260 3.13025E+01
 -1      2261 3.13025E+01
 -1      2262 3.13025E+01
 -1      2263 3.10248E+01
 -1      2264 3.03768E+01
 -1      2265 3.12485E+01
 -1      2266 2.97779E+01
 -1      2267 3.02642E+01
 -1      2268 3.03127E+01
 -1      2269 3.05709E+01
 -1      2270 3.16728E+01
 -1      2271 3.06032E+01
 -1      2272 3.04642E+01
 -1      2273 3.12305E+01
 -1      2274 3.08597E+01
 -1      2275 3.08843E+01
 -1      2276 3.04662E+01
 -1      2277 3.08843E+01
 -1      2278 3.05805E+01
 -1      2279 3.05825E+01
 -1      2280 3.03922E+01
 -1      2281 3.04662E+01
 -1      2282 3.04662E+01
 -1      2283 3.05116E+01
 -1      2284 3.07221E+01
 -1      2285 3.10224E+01
 -1      2286 3.75292E+01
 -1      2287 3.43794E+01
 -1      2288 3.05672E+01
 -1      2289 3.00337E+01
 -1      2290 2.98056E+01
 -1      2291 3.10224E+01
 -1      2292 2.94843E+01
 -1      2293 3.17618E+01
 -1      2294 3.19772E+01
 -1      2295 3.23281E+01
 -1      2296 3.01741E+01
 -1      2297 3.65876E+01
 -1      2298 3.03768E+01
 -1      2299 3.04167E+01
 -1      2300 3.07422E+01
 -1      2301 3.17618E+01
 -1      2302 3.16437E+01
 -1      2303 3.04622E+01
 -1      2304 3.00252E+01
 -1      2305 2.98056E+01
 -1      2306 3.03911E+01
 -1      2307 2.37420E+01
 -1      2308 3.12200E+01
 -1      2309 3.10485E+01
 -1      2310 3.14353E+01
 -1      2311 3.08813E+01
 -1      2312 3.10647E+01
 -1      2313 3.17054E+01
 -1      2314 3.07008E+01
 -1      2315 3.06682E+01
 -1      2316 3.11329E+01
 -1      2317 3.13532E+01
 -1      2318 3.03495E+01
 -1      2319 3.05686E+01
 -1      2320 3.05356E+01
 -1      2321 3.11329E+01
 -1      2322 3.07008E+01
 -1      2323 3.05831E+01
 -1      2324 3.06012E+01
 -1      2325 3.06355E+01
 -1      2326 3.05709E+01
 -1      2327 3.05700E+01
 -1      2328 3.13532E+01
 -1      2329 2.93187E+01
 -1      2330 2.26647E+01
 -1      2331 3.05825E+01
 -1      2332 3.07085E+01
 -1      2333 3.07085E+01
 -1      2334 3.07221E+01
 -1      2335 2.94758E+01
 -1      2336 3.11078E+01
 -1      2337 3.01429E+01
 -1      2338 3.11078E+01
 -1      2339 3.07740E+01
 -1      2340 2.94673E+01
 -1      2341 2.88456E+01
 -1      2342 3.06355E+01
 -1      2343 3.13532E+01
 -1      2344 3.04614E+01
 -1      2345 3.67589E+01
 -1      2346 3.28040E+01
 -1      2347 2.82831E+01
 -1      2348 2.88752E+01
 -1      2349 3.18927E+01
 -1      2350 3.03127E+01
 -1      2351 3.00053E+01
 -1      2352 2.56142E+01
 -1      2353 2.58749E+01
 -3
 9999
