    1C
    1UUSER                                                              
    1UDATE              02.september.2024                               
    1UTIME              16:25:15                                        
    1UHOST                                                              
    1UPGM               CalculiX                                        
    1UVERSION           Version 2.20                             
    1UCOMPILETIME       Sun Jul 31 18:08:37 CEST 2022                    
    1UDIR                                                               
    1UDBN                                                               
    1UMAT    1EL                                                        
    2C                          2353                                     1
 -1         1-5.00000E-02 0.00000E+00 0.00000E+00
 -1         2-5.00000E-02 0.00000E+00 3.00000E-01
 -1         3 5.00070E-02 1.26000E-04 3.00000E-01
 -1         4 5.00070E-02 1.26000E-04 0.00000E+00
 -1         5 4.99930E-02-1.26000E-04 3.00000E-01
 -1         6 4.99930E-02-1.26000E-04 0.00000E+00
 -1         7-5.00000E-02 0.00000E+00 1.00000E-02
 -1         8-5.00000E-02 0.00000E+00 2.00000E-02
 -1         9-5.00000E-02 0.00000E+00 3.00000E-02
 -1        10-5.00000E-02 0.00000E+00 4.00000E-02
 -1        11-5.00000E-02 0.00000E+00 5.00000E-02
 -1        12-5.00000E-02 0.00000E+00 6.00000E-02
 -1        13-5.00000E-02 0.00000E+00 7.00000E-02
 -1        14-5.00000E-02 0.00000E+00 8.00000E-02
 -1        15-5.00000E-02 0.00000E+00 9.00000E-02
 -1        16-5.00000E-02 0.00000E+00 1.00000E-01
 -1        17-5.00000E-02 0.00000E+00 1.10000E-01
 -1        18-5.00000E-02 0.00000E+00 1.20000E-01
 -1        19-5.00000E-02 0.00000E+00 1.30000E-01
 -1        20-5.00000E-02 0.00000E+00 1.40000E-01
 -1        21-5.00000E-02 0.00000E+00 1.50000E-01
 -1        22-5.00000E-02 0.00000E+00 1.60000E-01
 -1        23-5.00000E-02 0.00000E+00 1.70000E-01
 -1        24-5.00000E-02 0.00000E+00 1.80000E-01
 -1        25-5.00000E-02 0.00000E+00 1.90000E-01
 -1        26-5.00000E-02 0.00000E+00 2.00000E-01
 -1        27-5.00000E-02 0.00000E+00 2.10000E-01
 -1        28-5.00000E-02 0.00000E+00 2.20000E-01
 -1        29-5.00000E-02 0.00000E+00 2.30000E-01
 -1        30-5.00000E-02 0.00000E+00 2.40000E-01
 -1        31-5.00000E-02 0.00000E+00 2.50000E-01
 -1        32-5.00000E-02 0.00000E+00 2.60000E-01
 -1        33-5.00000E-02 0.00000E+00 2.70000E-01
 -1        34-5.00000E-02 0.00000E+00 2.80000E-01
 -1        35-5.00000E-02 0.00000E+00 2.90000E-01
 -1        36-5.00000E-02 0.00000E+00 5.00000E-03
 -1        37-5.00000E-02 0.00000E+00 1.50000E-02
 -1        38-5.00000E-02 0.00000E+00 2.50000E-02
 -1        39-5.00000E-02 0.00000E+00 3.50000E-02
 -1        40-5.00000E-02 0.00000E+00 4.50000E-02
 -1        41-5.00000E-02 0.00000E+00 5.50000E-02
 -1        42-5.00000E-02 0.00000E+00 6.50000E-02
 -1        43-5.00000E-02 0.00000E+00 7.50000E-02
 -1        44-5.00000E-02 0.00000E+00 8.50000E-02
 -1        45-5.00000E-02 0.00000E+00 9.50000E-02
 -1        46-5.00000E-02 0.00000E+00 1.05000E-01
 -1        47-5.00000E-02 0.00000E+00 1.15000E-01
 -1        48-5.00000E-02 0.00000E+00 1.25000E-01
 -1        49-5.00000E-02 0.00000E+00 1.35000E-01
 -1        50-5.00000E-02 0.00000E+00 1.45000E-01
 -1        51-5.00000E-02 0.00000E+00 1.55000E-01
 -1        52-5.00000E-02 0.00000E+00 1.65000E-01
 -1        53-5.00000E-02 0.00000E+00 1.75000E-01
 -1        54-5.00000E-02 0.00000E+00 1.85000E-01
 -1        55-5.00000E-02 0.00000E+00 1.95000E-01
 -1        56-5.00000E-02 0.00000E+00 2.05000E-01
 -1        57-5.00000E-02 0.00000E+00 2.15000E-01
 -1        58-5.00000E-02 0.00000E+00 2.25000E-01
 -1        59-5.00000E-02 0.00000E+00 2.35000E-01
 -1        60-5.00000E-02 0.00000E+00 2.45000E-01
 -1        61-5.00000E-02 0.00000E+00 2.55000E-01
 -1        62-5.00000E-02 0.00000E+00 2.65000E-01
 -1        63-5.00000E-02 0.00000E+00 2.75000E-01
 -1        64-5.00000E-02 0.00000E+00 2.85000E-01
 -1        65-5.00000E-02 0.00000E+00 2.95000E-01
 -1        66-4.18220E-02 5.39000E-03 3.00000E-01
 -1        67-2.81820E-02 7.69500E-03 3.00000E-01
 -1        68-9.32700E-03 7.73300E-03 3.00000E-01
 -1        69 1.05640E-02 6.14600E-03 3.00000E-01
 -1        70 3.03510E-02 3.56300E-03 3.00000E-01
 -1        71-4.66510E-02 3.56600E-03 3.00000E-01
 -1        72-3.50610E-02 6.88200E-03 3.00000E-01
 -1        73-1.87560E-02 7.99800E-03 3.00000E-01
 -1        74 6.30000E-04 7.08700E-03 3.00000E-01
 -1        75 2.04710E-02 4.96300E-03 3.00000E-01
 -1        76 4.01980E-02 1.95400E-03 3.00000E-01
 -1        77 5.00070E-02 1.26000E-04 2.00000E-02
 -1        78 5.00070E-02 1.26000E-04 4.00000E-02
 -1        79 5.00070E-02 1.26000E-04 6.00000E-02
 -1        80 5.00070E-02 1.26000E-04 8.00000E-02
 -1        81 5.00070E-02 1.26000E-04 1.00000E-01
 -1        82 5.00070E-02 1.26000E-04 1.20000E-01
 -1        83 5.00070E-02 1.26000E-04 1.40000E-01
 -1        84 5.00070E-02 1.26000E-04 1.60000E-01
 -1        85 5.00070E-02 1.26000E-04 1.80000E-01
 -1        86 5.00070E-02 1.26000E-04 2.00000E-01
 -1        87 5.00070E-02 1.26000E-04 2.20000E-01
 -1        88 5.00070E-02 1.26000E-04 2.40000E-01
 -1        89 5.00070E-02 1.26000E-04 2.60000E-01
 -1        90 5.00070E-02 1.26000E-04 2.80000E-01
 -1        91 5.00070E-02 1.26000E-04 1.00000E-02
 -1        92 5.00070E-02 1.26000E-04 3.00000E-02
 -1        93 5.00070E-02 1.26000E-04 5.00000E-02
 -1        94 5.00070E-02 1.26000E-04 7.00000E-02
 -1        95 5.00070E-02 1.26000E-04 9.00000E-02
 -1        96 5.00070E-02 1.26000E-04 1.10000E-01
 -1        97 5.00070E-02 1.26000E-04 1.30000E-01
 -1        98 5.00070E-02 1.26000E-04 1.50000E-01
 -1        99 5.00070E-02 1.26000E-04 1.70000E-01
 -1       100 5.00070E-02 1.26000E-04 1.90000E-01
 -1       101 5.00070E-02 1.26000E-04 2.10000E-01
 -1       102 5.00070E-02 1.26000E-04 2.30000E-01
 -1       103 5.00070E-02 1.26000E-04 2.50000E-01
 -1       104 5.00070E-02 1.26000E-04 2.70000E-01
 -1       105 5.00070E-02 1.26000E-04 2.90000E-01
 -1       106-4.18220E-02 5.39000E-03 0.00000E+00
 -1       107-2.81820E-02 7.69500E-03 0.00000E+00
 -1       108-9.32700E-03 7.73300E-03 0.00000E+00
 -1       109 1.05640E-02 6.14600E-03 0.00000E+00
 -1       110 3.03510E-02 3.56300E-03 0.00000E+00
 -1       111-4.66510E-02 3.56600E-03 0.00000E+00
 -1       112-3.50610E-02 6.88200E-03 0.00000E+00
 -1       113-1.87560E-02 7.99800E-03 0.00000E+00
 -1       114 6.30000E-04 7.08700E-03 0.00000E+00
 -1       115 2.04710E-02 4.96300E-03 0.00000E+00
 -1       116 4.01980E-02 1.95400E-03 0.00000E+00
 -1       117 5.00000E-02-0.00000E+00 3.00000E-01
 -1       118 4.99930E-02-1.26000E-04 2.00000E-02
 -1       119 4.99930E-02-1.26000E-04 4.00000E-02
 -1       120 4.99930E-02-1.26000E-04 6.00000E-02
 -1       121 4.99930E-02-1.26000E-04 8.00000E-02
 -1       122 4.99930E-02-1.26000E-04 1.00000E-01
 -1       123 4.99930E-02-1.26000E-04 1.20000E-01
 -1       124 4.99930E-02-1.26000E-04 1.40000E-01
 -1       125 4.99930E-02-1.26000E-04 1.60000E-01
 -1       126 4.99930E-02-1.26000E-04 1.80000E-01
 -1       127 4.99930E-02-1.26000E-04 2.00000E-01
 -1       128 4.99930E-02-1.26000E-04 2.20000E-01
 -1       129 4.99930E-02-1.26000E-04 2.40000E-01
 -1       130 4.99930E-02-1.26000E-04 2.60000E-01
 -1       131 4.99930E-02-1.26000E-04 2.80000E-01
 -1       132 4.99930E-02-1.26000E-04 1.00000E-02
 -1       133 4.99930E-02-1.26000E-04 3.00000E-02
 -1       134 4.99930E-02-1.26000E-04 5.00000E-02
 -1       135 4.99930E-02-1.26000E-04 7.00000E-02
 -1       136 4.99930E-02-1.26000E-04 9.00000E-02
 -1       137 4.99930E-02-1.26000E-04 1.10000E-01
 -1       138 4.99930E-02-1.26000E-04 1.30000E-01
 -1       139 4.99930E-02-1.26000E-04 1.50000E-01
 -1       140 4.99930E-02-1.26000E-04 1.70000E-01
 -1       141 4.99930E-02-1.26000E-04 1.90000E-01
 -1       142 4.99930E-02-1.26000E-04 2.10000E-01
 -1       143 4.99930E-02-1.26000E-04 2.30000E-01
 -1       144 4.99930E-02-1.26000E-04 2.50000E-01
 -1       145 4.99930E-02-1.26000E-04 2.70000E-01
 -1       146 4.99930E-02-1.26000E-04 2.90000E-01
 -1       147 5.00000E-02-0.00000E+00 0.00000E+00
 -1       148-4.08910E-02-3.43500E-03 0.00000E+00
 -1       149-2.71930E-02-3.98200E-03 0.00000E+00
 -1       150-8.64300E-03-3.80000E-03 0.00000E+00
 -1       151 1.09200E-02-2.86900E-03 0.00000E+00
 -1       152 3.04630E-02-1.60100E-03 0.00000E+00
 -1       153-4.59300E-02-2.63700E-03 0.00000E+00
 -1       154-3.40480E-02-3.85400E-03 0.00000E+00
 -1       155-1.79170E-02-3.99400E-03 0.00000E+00
 -1       156 1.14100E-03-3.39800E-03 0.00000E+00
 -1       157 2.06930E-02-2.26200E-03 0.00000E+00
 -1       158 4.02300E-02-8.93000E-04 0.00000E+00
 -1       159-4.08910E-02-3.43500E-03 3.00000E-01
 -1       160-2.71930E-02-3.98200E-03 3.00000E-01
 -1       161-8.64300E-03-3.80000E-03 3.00000E-01
 -1       162 1.09200E-02-2.86900E-03 3.00000E-01
 -1       163 3.04630E-02-1.60100E-03 3.00000E-01
 -1       164-4.59300E-02-2.63700E-03 3.00000E-01
 -1       165-3.40480E-02-3.85400E-03 3.00000E-01
 -1       166-1.79170E-02-3.99400E-03 3.00000E-01
 -1       167 1.14100E-03-3.39800E-03 3.00000E-01
 -1       168 2.06930E-02-2.26200E-03 3.00000E-01
 -1       169 4.02300E-02-8.93000E-04 3.00000E-01
 -1       170-3.95490E-02 5.99000E-03 2.21089E-01
 -1       171-4.32690E-02 4.93900E-03 2.29624E-01
 -1       172-2.10990E-02 7.99700E-03 4.51240E-02
 -1       173-9.56600E-03 7.74400E-03 4.44660E-02
 -1       174-1.80380E-02 7.99200E-03 5.34900E-02
 -1       175-3.35400E-03 7.38400E-03 5.64280E-02
 -1       176-3.04930E-02 7.48500E-03 2.54235E-01
 -1       177-2.35140E-02 7.94700E-03 2.63286E-01
 -1       178-3.51010E-02 6.87500E-03 2.63025E-01
 -1       179-2.75360E-02 7.74300E-03 2.43261E-01
 -1       180-1.44170E-02 7.92400E-03 2.52145E-01
 -1       181-6.81100E-03 7.60100E-03 2.19772E-01
 -1       182 1.08840E-02 6.11200E-03 2.18963E-01
 -1       183 6.71700E-03 6.54200E-03 2.33398E-01
 -1       184 5.26500E-03 6.68100E-03 4.47430E-02
 -1       185-3.73000E-04 7.16600E-03 2.80950E-02
 -1       186-6.92600E-03 7.60800E-03 1.95089E-01
 -1       187 1.23340E-02 5.95200E-03 1.95373E-01
 -1       188 4.37000E-04 7.10200E-03 2.07919E-01
 -1       189-1.77890E-02 7.98900E-03 3.20860E-02
 -1       190 4.24900E-03 6.77500E-03 1.43833E-01
 -1       191 4.37000E-04 7.10200E-03 1.27920E-01
 -1       192 1.44450E-02 5.71000E-03 1.35943E-01
 -1       193-8.31300E-03 7.68300E-03 1.38671E-01
 -1       194-6.92600E-03 7.60800E-03 1.55089E-01
 -1       195 1.23340E-02 5.95200E-03 1.55373E-01
 -1       196 4.37000E-04 7.10200E-03 1.67920E-01
 -1       197 4.24900E-03 6.77500E-03 1.83833E-01
 -1       198 1.44450E-02 5.71000E-03 1.75943E-01
 -1       199-8.31300E-03 7.68300E-03 1.78671E-01
 -1       200 2.04510E-02 4.96600E-03 4.42720E-02
 -1       201 2.81730E-02 3.89000E-03 5.89590E-02
 -1       202 1.28550E-02 5.89300E-03 5.55030E-02
 -1       203-6.92600E-03 7.60800E-03 1.15089E-01
 -1       204 1.16460E-02 6.02800E-03 1.17216E-01
 -1       205 3.65190E-02 2.58100E-03 4.58470E-02
 -1       206-5.10000E-03 7.49900E-03 9.93230E-02
 -1       207 1.16460E-02 6.02800E-03 9.72160E-02
 -1       208 3.80000E-03 6.81600E-03 1.06649E-01
 -1       209-4.69900E-03 7.47400E-03 7.72230E-02
 -1       210 1.16460E-02 6.02800E-03 7.72160E-02
 -1       211 3.44200E-03 6.84800E-03 8.67340E-02
 -1       212 1.88880E-02 5.16700E-03 2.42533E-01
 -1       213 1.98850E-02 5.03900E-03 2.29593E-01
 -1       214 3.80000E-03 6.81600E-03 6.66490E-02
 -1       215-4.06220E-02 5.72200E-03 2.56233E-01
 -1       216-3.89350E-02 6.13300E-03 2.46717E-01
 -1       217 3.04240E-02 3.55200E-03 3.14150E-02
 -1       218 1.58930E-02 5.53800E-03 3.41230E-02
 -1       219 1.92240E-02 5.12400E-03 2.06769E-01
 -1       220 3.20000E-02 3.30900E-03 1.94925E-01
 -1       221 3.47340E-02 2.87400E-03 2.08779E-01
 -1       222 2.00260E-02 5.02100E-03 1.84502E-01
 -1       223 3.20000E-02 3.30900E-03 1.74925E-01
 -1       224 1.92240E-02 5.12400E-03 1.66769E-01
 -1       225 2.80880E-02 3.90300E-03 2.19433E-01
 -1       226 3.20000E-02 3.30900E-03 1.54925E-01
 -1       227 2.00260E-02 5.02100E-03 1.44502E-01
 -1       228-4.34000E-04 7.17100E-03 2.61765E-01
 -1       229-1.17300E-02 7.83600E-03 2.66426E-01
 -1       230-4.40250E-02 4.67700E-03 6.37910E-02
 -1       231-4.11340E-02 5.58400E-03 7.11570E-02
 -1       232-8.43200E-03 7.68900E-03 2.36314E-01
 -1       233 3.69000E-03 6.82600E-03 2.48089E-01
 -1       234-3.02460E-02 7.51100E-03 2.31022E-01
 -1       235-3.84200E-02 6.24700E-03 2.37371E-01
 -1       236 3.20000E-02 3.30900E-03 1.34925E-01
 -1       237 1.92240E-02 5.12400E-03 1.26769E-01
 -1       238 1.14570E-02 6.04900E-03 2.70742E-01
 -1       239 2.93710E-02 3.71200E-03 2.64634E-01
 -1       240 2.41600E-02 4.46500E-03 2.75179E-01
 -1       241 4.03510E-02 1.92800E-03 2.71672E-01
 -1       242 3.20000E-02 3.30900E-03 1.14925E-01
 -1       243 1.92240E-02 5.12400E-03 1.06769E-01
 -1       244 3.19880E-02 3.31100E-03 9.49140E-02
 -1       245 1.92240E-02 5.12400E-03 8.67690E-02
 -1       246 3.15840E-02 3.37400E-03 7.46620E-02
 -1       247 1.92240E-02 5.12400E-03 6.67690E-02
 -1       248 3.33870E-02 3.09000E-03 2.32410E-01
 -1       249 3.39980E-02 2.99300E-03 2.48197E-01
 -1       250 6.72500E-03 6.54100E-03 2.84873E-01
 -1       251-1.37520E-02 7.90500E-03 2.87289E-01
 -1       252-3.62000E-03 7.40300E-03 2.75838E-01
 -1       253-2.76910E-02 7.73200E-03 1.35070E-02
 -1       254-3.66210E-02 6.61000E-03 9.31000E-03
 -1       255-3.81200E-02 6.31200E-03 2.91889E-01
 -1       256-2.75920E-02 7.73900E-03 2.84708E-01
 -1       257 1.65580E-02 5.45800E-03 2.55947E-01
 -1       258-1.86110E-02 7.99700E-03 2.75596E-01
 -1       259-2.84440E-02 7.67400E-03 2.73612E-01
 -1       260-3.76010E-02 6.41900E-03 2.78406E-01
 -1       261-4.07630E-02 5.68400E-03 2.84490E-01
 -1       262-4.31060E-02 4.99300E-03 9.28800E-02
 -1       263-3.80470E-02 6.32700E-03 8.26370E-02
 -1       264-3.40180E-02 7.04400E-03 9.23560E-02
 -1       265-2.64740E-02 7.81300E-03 8.38320E-02
 -1       266-4.29590E-02 5.04100E-03 2.12687E-01
 -1       267-3.92040E-02 6.07200E-03 2.03295E-01
 -1       268-3.40180E-02 7.04400E-03 2.12356E-01
 -1       269-2.68440E-02 7.79000E-03 2.03228E-01
 -1       270-4.31060E-02 4.99300E-03 1.72880E-01
 -1       271-3.92090E-02 6.07000E-03 1.63303E-01
 -1       272-3.40180E-02 7.04400E-03 1.72356E-01
 -1       273-2.68440E-02 7.79000E-03 1.63228E-01
 -1       274-4.31060E-02 4.99300E-03 1.32880E-01
 -1       275-3.92090E-02 6.07000E-03 1.23303E-01
 -1       276-3.40180E-02 7.04400E-03 1.32356E-01
 -1       277-2.68440E-02 7.79000E-03 1.23228E-01
 -1       278-3.10250E-02 7.42800E-03 2.96640E-02
 -1       279-4.10040E-02 5.62000E-03 2.60050E-02
 -1       280-3.40560E-02 7.03800E-03 2.01080E-02
 -1       281-4.37300E-02 4.78100E-03 1.67920E-02
 -1       282-2.33330E-02 7.95300E-03 2.27600E-02
 -1       283-4.48740E-02 4.35600E-03 8.63180E-02
 -1       284-4.13620E-02 5.52100E-03 2.70980E-01
 -1       285-4.02620E-02 5.81400E-03 3.54640E-02
 -1       286-4.10400E-02 5.61000E-03 1.83019E-01
 -1       287-4.28030E-02 5.09100E-03 1.93235E-01
 -1       288-4.10400E-02 5.61000E-03 1.43019E-01
 -1       289-4.28030E-02 5.09100E-03 1.53235E-01
 -1       290-4.10400E-02 5.61000E-03 1.03019E-01
 -1       291-4.28030E-02 5.09100E-03 1.13235E-01
 -1       292-3.20700E-02 7.30700E-03 5.14600E-02
 -1       293-3.62850E-02 6.67200E-03 6.12940E-02
 -1       294-4.27640E-02 5.10300E-03 5.40980E-02
 -1       295-2.67090E-02 7.79800E-03 6.08420E-02
 -1       296-2.91610E-02 7.61300E-03 2.21199E-01
 -1       297-3.25340E-02 7.24900E-03 1.91716E-01
 -1       298 2.93430E-02 3.71600E-03 9.32100E-03
 -1       299-2.91610E-02 7.61300E-03 1.81199E-01
 -1       300 3.07780E-02 3.49800E-03 2.86617E-01
 -1       301-3.25340E-02 7.24900E-03 1.51716E-01
 -1       302-2.91610E-02 7.61300E-03 1.41199E-01
 -1       303-3.25340E-02 7.24900E-03 1.11716E-01
 -1       304-1.95550E-02 8.00100E-03 2.36872E-01
 -1       305-2.91610E-02 7.61300E-03 1.01199E-01
 -1       306-3.01810E-02 7.51700E-03 4.01230E-02
 -1       307-2.04490E-02 8.00100E-03 2.13795E-01
 -1       308-1.86560E-02 7.99700E-03 2.25161E-01
 -1       309 1.80590E-02 5.27200E-03 2.20100E-02
 -1       310 7.14800E-03 6.49900E-03 1.13040E-02
 -1       311-2.86140E-02 7.66000E-03 7.23720E-02
 -1       312-1.72050E-02 7.98200E-03 1.29320E-02
 -1       313-1.92980E-02 8.00000E-03 1.95577E-01
 -1       314-1.37750E-02 7.90600E-03 2.04941E-01
 -1       315-2.29880E-02 7.96300E-03 1.74155E-01
 -1       316-1.92160E-02 8.00000E-03 1.85686E-01
 -1       317-1.92980E-02 8.00000E-03 1.55577E-01
 -1       318-1.37750E-02 7.90600E-03 1.64941E-01
 -1       319-5.83700E-03 7.54400E-03 1.51060E-02
 -1       320-2.29880E-02 7.96300E-03 1.34155E-01
 -1       321-1.92160E-02 8.00000E-03 1.45686E-01
 -1       322-1.92980E-02 8.00000E-03 1.15577E-01
 -1       323-1.37750E-02 7.90600E-03 1.24941E-01
 -1       324-4.31560E-02 4.97600E-03 2.64229E-01
 -1       325-2.16700E-02 7.99000E-03 9.48370E-02
 -1       326-1.92150E-02 8.00000E-03 1.05686E-01
 -1       327-4.10200E-02 5.61500E-03 4.47500E-02
 -1       328-1.74760E-02 7.98500E-03 7.62100E-02
 -1       329-1.19710E-02 7.84500E-03 8.54580E-02
 -1       330-1.35730E-02 7.90000E-03 6.70670E-02
 -1       331-1.18730E-02 7.84200E-03 2.24940E-02
 -1       332-4.63930E-02 3.69300E-03 5.00000E-03
 -1       333-4.63930E-02 3.69300E-03 2.95000E-01
 -1       334 3.05650E-02 3.53100E-03 2.93308E-01
 -1       335 4.04110E-02 1.91700E-03 2.93308E-01
 -1       336 4.04110E-02 1.91700E-03 2.83308E-01
 -1       337 3.96960E-02 2.04200E-03 1.46610E-02
 -1       338 3.96960E-02 2.04200E-03 4.66100E-03
 -1       339 2.98470E-02 3.64000E-03 4.66100E-03
 -1       340-4.73260E-02 3.20700E-03 1.33960E-02
 -1       341-4.73260E-02 3.20700E-03 1.83960E-02
 -1       342-4.38200E-02 4.75000E-03 9.65500E-03
 -1       343-3.92360E-02 6.06400E-03 4.65500E-03
 -1       344-4.02090E-02 5.82800E-03 1.30510E-02
 -1       345-4.59900E-02 3.88200E-03 2.30020E-02
 -1       346-4.59900E-02 3.88200E-03 2.80020E-02
 -1       347-4.23740E-02 5.22500E-03 2.13980E-02
 -1       348-4.56250E-02 4.04500E-03 3.27320E-02
 -1       349-4.56250E-02 4.04500E-03 3.77320E-02
 -1       350-4.06330E-02 5.71900E-03 3.07340E-02
 -1       351-4.59990E-02 3.87800E-03 4.23750E-02
 -1       352-4.59990E-02 3.87800E-03 4.73750E-02
 -1       353-4.06420E-02 5.71600E-03 4.01070E-02
 -1       354-4.68550E-02 3.46200E-03 5.70490E-02
 -1       355-4.68550E-02 3.46200E-03 5.20490E-02
 -1       356-4.18950E-02 5.36900E-03 4.94240E-02
 -1       357-4.74700E-02 3.12500E-03 6.68950E-02
 -1       358-4.74700E-02 3.12500E-03 6.18950E-02
 -1       359-4.33960E-02 4.89600E-03 5.89440E-02
 -1       360-4.60550E-02 3.85300E-03 7.55790E-02
 -1       361-4.60550E-02 3.85300E-03 7.05790E-02
 -1       362-4.25890E-02 5.15900E-03 6.74740E-02
 -1       363-4.78800E-02 2.87500E-03 8.81590E-02
 -1       364-4.78800E-02 2.87500E-03 8.31590E-02
 -1       365-4.45290E-02 4.49000E-03 8.13180E-02
 -1       366-3.95960E-02 5.97900E-03 7.68970E-02
 -1       367-4.15000E-02 5.48200E-03 8.44780E-02
 -1       368-4.70220E-02 3.37400E-03 9.64400E-02
 -1       369-4.70220E-02 3.37400E-03 9.14400E-02
 -1       370-4.39940E-02 4.68800E-03 8.95990E-02
 -1       371-4.60080E-02 3.87400E-03 1.06509E-01
 -1       372-4.60080E-02 3.87400E-03 1.01509E-01
 -1       373-4.20770E-02 5.31500E-03 9.79490E-02
 -1       374-4.68740E-02 3.45200E-03 1.16617E-01
 -1       375-4.68740E-02 3.45200E-03 1.11617E-01
 -1       376-4.19240E-02 5.36000E-03 1.08127E-01
 -1       377-4.51040E-02 4.26300E-03 1.21652E-01
 -1       378-4.51040E-02 4.26300E-03 1.26652E-01
 -1       379-4.10160E-02 5.61700E-03 1.18269E-01
 -1       380-4.70220E-02 3.37400E-03 1.36440E-01
 -1       381-4.70220E-02 3.37400E-03 1.31440E-01
 -1       382-4.11700E-02 5.57500E-03 1.28092E-01
 -1       383-4.60080E-02 3.87400E-03 1.46509E-01
 -1       384-4.60080E-02 3.87400E-03 1.41509E-01
 -1       385-4.20770E-02 5.31500E-03 1.37949E-01
 -1       386-4.68740E-02 3.45200E-03 1.56617E-01
 -1       387-4.68740E-02 3.45200E-03 1.51617E-01
 -1       388-4.19240E-02 5.36000E-03 1.48127E-01
 -1       389-4.51040E-02 4.26300E-03 1.61652E-01
 -1       390-4.51040E-02 4.26300E-03 1.66652E-01
 -1       391-4.10160E-02 5.61700E-03 1.58269E-01
 -1       392-4.70220E-02 3.37400E-03 1.76440E-01
 -1       393-4.70220E-02 3.37400E-03 1.71440E-01
 -1       394-4.11700E-02 5.57500E-03 1.68092E-01
 -1       395-4.60080E-02 3.87400E-03 1.86509E-01
 -1       396-4.60080E-02 3.87400E-03 1.81509E-01
 -1       397-4.20770E-02 5.31500E-03 1.77949E-01
 -1       398-4.68740E-02 3.45200E-03 1.96617E-01
 -1       399-4.68740E-02 3.45200E-03 1.91617E-01
 -1       400-4.19240E-02 5.36000E-03 1.88127E-01
 -1       401-4.51020E-02 4.26500E-03 2.01648E-01
 -1       402-4.51020E-02 4.26500E-03 2.06648E-01
 -1       403-4.10130E-02 5.61700E-03 1.98265E-01
 -1       404-4.69500E-02 3.41200E-03 2.16343E-01
 -1       405-4.69500E-02 3.41200E-03 2.11343E-01
 -1       406-4.10920E-02 5.59600E-03 2.07991E-01
 -1       407-4.71020E-02 3.33100E-03 2.24812E-01
 -1       408-4.71020E-02 3.33100E-03 2.29812E-01
 -1       409-4.52720E-02 4.19400E-03 2.20544E-01
 -1       410-4.14210E-02 5.50500E-03 2.25356E-01
 -1       411-4.12630E-02 5.54900E-03 2.16888E-01
 -1       412-4.71020E-02 3.33100E-03 2.34812E-01
 -1       413-4.49690E-02 4.31800E-03 2.48359E-01
 -1       414-4.49690E-02 4.31800E-03 2.43359E-01
 -1       415-4.47140E-02 4.41900E-03 2.38686E-01
 -1       416-4.08620E-02 5.65800E-03 2.33498E-01
 -1       417-3.86780E-02 6.19100E-03 2.42044E-01
 -1       418-4.58030E-02 3.96700E-03 2.53117E-01
 -1       419-4.58030E-02 3.96700E-03 2.58117E-01
 -1       420-3.97800E-02 5.93400E-03 2.51475E-01
 -1       421-4.70460E-02 3.36100E-03 2.67114E-01
 -1       422-4.70460E-02 3.36100E-03 2.62114E-01
 -1       423-4.18950E-02 5.36900E-03 2.60231E-01
 -1       424-4.61670E-02 3.80100E-03 2.75490E-01
 -1       425-4.61670E-02 3.80100E-03 2.70490E-01
 -1       426-4.22620E-02 5.25900E-03 2.67604E-01
 -1       427-4.58720E-02 3.93600E-03 2.87245E-01
 -1       428-4.58720E-02 3.93600E-03 2.82245E-01
 -1       429-4.43070E-02 4.57300E-03 2.79203E-01
 -1       430-3.91880E-02 6.07500E-03 2.81448E-01
 -1       431-3.94900E-02 6.00400E-03 2.74693E-01
 -1       432-4.45650E-02 4.47600E-03 2.90945E-01
 -1       433-3.99790E-02 5.88500E-03 2.95945E-01
 -1       434-3.94450E-02 6.01500E-03 2.88190E-01
 -1       435-3.31730E-02 7.16400E-03 2.95945E-01
 -1       436-1.15390E-02 7.82900E-03 2.93645E-01
 -1       437-2.09690E-02 7.99800E-03 2.93645E-01
 -1       438-2.78870E-02 7.71700E-03 2.92354E-01
 -1       439-2.06730E-02 8.00000E-03 2.85998E-01
 -1       440-3.28800E-02 7.20400E-03 2.88298E-01
 -1       441-1.29400E-03 7.23700E-03 2.92437E-01
 -1       442 8.64500E-03 6.34800E-03 2.92437E-01
 -1       443-3.50200E-03 7.39500E-03 2.86081E-01
 -1       444 2.06860E-02 4.93500E-03 2.93308E-01
 -1       445 1.87720E-02 5.18200E-03 2.85745E-01
 -1       446 4.02350E-02 1.94800E-03 3.57070E-02
 -1       447 4.02350E-02 1.94800E-03 2.57070E-02
 -1       448 2.98830E-02 3.63400E-03 2.03680E-02
 -1       449 4.32730E-02 1.40700E-03 5.29240E-02
 -1       450 4.32730E-02 1.40700E-03 4.29240E-02
 -1       451 3.34730E-02 3.07700E-03 3.86310E-02
 -1       452 4.08120E-02 1.84700E-03 7.73310E-02
 -1       453 4.08120E-02 1.84700E-03 6.73310E-02
 -1       454 3.23490E-02 3.25400E-03 5.24030E-02
 -1       455 3.91130E-02 2.14200E-03 5.94800E-02
 -1       456 2.98790E-02 3.63500E-03 6.68110E-02
 -1       457 4.10140E-02 1.81100E-03 9.74570E-02
 -1       458 4.10140E-02 1.81100E-03 8.74570E-02
 -1       459 3.17860E-02 3.34200E-03 8.47880E-02
 -1       460 4.10200E-02 1.81000E-03 1.17462E-01
 -1       461 4.10200E-02 1.81000E-03 1.07462E-01
 -1       462 3.19940E-02 3.31000E-03 1.04919E-01
 -1       463 4.10200E-02 1.81000E-03 1.37463E-01
 -1       464 4.10200E-02 1.81000E-03 1.27463E-01
 -1       465 3.20000E-02 3.30900E-03 1.24925E-01
 -1       466 4.10200E-02 1.81000E-03 1.57463E-01
 -1       467 4.10200E-02 1.81000E-03 1.47463E-01
 -1       468 3.20000E-02 3.30900E-03 1.44925E-01
 -1       469 4.10200E-02 1.81000E-03 1.77463E-01
 -1       470 4.10200E-02 1.81000E-03 1.67463E-01
 -1       471 3.20000E-02 3.30900E-03 1.64925E-01
 -1       472 4.10200E-02 1.81000E-03 1.97463E-01
 -1       473 4.10200E-02 1.81000E-03 1.87463E-01
 -1       474 3.20000E-02 3.30900E-03 1.84925E-01
 -1       475 4.23830E-02 1.56700E-03 2.14390E-01
 -1       476 4.23830E-02 1.56700E-03 2.04390E-01
 -1       477 3.33670E-02 3.09400E-03 2.01852E-01
 -1       478 4.17110E-02 1.68800E-03 2.36205E-01
 -1       479 4.17110E-02 1.68800E-03 2.26205E-01
 -1       480 3.14130E-02 3.40000E-03 2.14106E-01
 -1       481 3.90710E-02 2.15000E-03 2.19717E-01
 -1       482 3.07390E-02 3.50400E-03 2.25922E-01
 -1       483 4.20160E-02 1.63300E-03 2.54098E-01
 -1       484 4.20160E-02 1.63300E-03 2.44098E-01
 -1       485 3.36930E-02 3.04200E-03 2.40303E-01
 -1       486 4.51840E-02 1.05500E-03 2.75836E-01
 -1       487 4.51840E-02 1.05500E-03 2.65836E-01
 -1       488 3.48660E-02 2.85300E-03 2.68153E-01
 -1       489 3.97100E-02 2.03900E-03 2.62317E-01
 -1       490 3.16860E-02 3.35800E-03 2.56415E-01
 -1       491 3.55690E-02 2.73800E-03 2.79144E-01
 -1       492-3.24160E-02 7.26400E-03 4.65500E-03
 -1       493-1.32650E-02 7.89000E-03 6.46600E-03
 -1       494-2.26970E-02 7.97000E-03 6.46600E-03
 -1       495-3.21710E-02 7.29500E-03 1.14080E-02
 -1       496-2.79370E-02 7.71400E-03 6.75300E-03
 -1       497-2.24510E-02 7.97600E-03 1.32190E-02
 -1       498-1.08100E-03 7.22100E-03 5.65200E-03
 -1       499 8.85600E-03 6.32600E-03 5.65200E-03
 -1       500-7.58100E-03 7.64400E-03 7.55300E-03
 -1       501 6.61000E-04 7.08400E-03 1.32050E-02
 -1       502-1.15180E-02 7.82800E-03 1.40190E-02
 -1       503 1.99660E-02 5.02900E-03 4.66100E-03
 -1       504 1.82630E-02 5.24600E-03 1.03120E-02
 -1       505-3.68240E-02 6.57200E-03 2.30323E-01
 -1       506-3.49220E-02 6.90400E-03 2.26055E-01
 -1       507-3.43840E-02 6.98900E-03 2.21144E-01
 -1       508-2.97040E-02 7.56400E-03 2.26111E-01
 -1       509-3.85280E-02 6.22400E-03 2.12521E-01
 -1       510-3.67950E-02 6.57700E-03 2.16722E-01
 -1       511-3.15930E-02 7.36400E-03 2.16778E-01
 -1       512-3.43510E-02 6.99400E-03 2.34197E-01
 -1       513-1.95690E-02 8.00100E-03 4.93070E-02
 -1       514-1.38010E-02 7.90700E-03 4.89780E-02
 -1       515-1.53310E-02 7.94700E-03 4.47950E-02
 -1       516-1.36760E-02 7.90300E-03 3.82760E-02
 -1       517-1.94440E-02 8.00100E-03 3.86050E-02
 -1       518-2.50650E-02 7.88700E-03 5.24750E-02
 -1       519-2.65940E-02 7.80500E-03 4.82920E-02
 -1       520-2.56460E-02 7.85900E-03 4.26240E-02
 -1       521-2.39910E-02 7.93100E-03 3.61050E-02
 -1       522-3.11260E-02 7.41700E-03 4.57920E-02
 -1       523-1.06920E-02 7.79400E-03 5.49590E-02
 -1       524-6.45900E-03 7.58100E-03 5.04470E-02
 -1       525 9.57000E-04 7.06000E-03 5.05860E-02
 -1       526-2.14400E-03 7.29900E-03 4.46050E-02
 -1       527 2.44700E-03 6.93500E-03 3.64190E-02
 -1       528-4.96700E-03 7.49100E-03 3.62800E-02
 -1       529-9.07400E-03 7.72100E-03 3.00910E-02
 -1       530-1.58060E-02 7.95700E-03 6.02790E-02
 -1       531-8.46100E-03 7.69000E-03 6.17480E-02
 -1       532-2.93930E-02 7.59200E-03 5.61510E-02
 -1       533-2.23750E-02 7.97700E-03 5.71660E-02
 -1       534-2.01410E-02 8.00200E-03 6.39540E-02
 -1       535 4.75900E-03 6.72800E-03 5.59660E-02
 -1       536 9.06200E-03 6.30500E-03 5.01230E-02
 -1       537 2.24000E-04 7.11900E-03 6.15390E-02
 -1       538 8.33000E-03 6.38000E-03 6.10760E-02
 -1       539-4.87900E-03 7.48500E-03 6.68580E-02
 -1       540-3.28010E-02 7.21400E-03 2.58630E-01
 -1       541-2.93240E-02 7.59900E-03 2.63156E-01
 -1       542-2.70080E-02 7.77900E-03 2.58761E-01
 -1       543-2.24610E-02 7.97500E-03 2.53190E-01
 -1       544-1.89650E-02 7.99900E-03 2.57716E-01
 -1       545-3.55900E-02 6.79400E-03 2.55234E-01
 -1       546-3.78750E-02 6.36300E-03 2.59629E-01
 -1       547-2.90150E-02 7.62600E-03 2.48748E-01
 -1       548-2.09780E-02 7.99800E-03 2.47703E-01
 -1       549-3.32650E-02 7.15100E-03 2.44989E-01
 -1       550-3.47340E-02 6.93400E-03 2.50476E-01
 -1       551-2.59810E-02 7.84100E-03 2.68449E-01
 -1       552-3.17800E-02 7.34200E-03 2.68319E-01
 -1       553-1.76210E-02 7.98700E-03 2.64856E-01
 -1       554-1.30730E-02 7.88400E-03 2.59286E-01
 -1       555-2.10630E-02 7.99700E-03 2.69441E-01
 -1       556-1.51700E-02 7.94300E-03 2.71011E-01
 -1       557-2.35310E-02 7.94700E-03 2.74604E-01
 -1       558-3.91640E-02 6.08100E-03 2.63627E-01
 -1       559-3.82500E-02 6.28400E-03 2.67002E-01
 -1       560-3.49520E-02 6.90000E-03 2.72296E-01
 -1       561-1.69850E-02 7.97800E-03 2.44509E-01
 -1       562-2.35480E-02 7.94600E-03 2.40067E-01
 -1       563-3.30040E-02 7.18700E-03 2.40316E-01
 -1       564-2.88920E-02 7.63700E-03 2.37141E-01
 -1       565-2.49070E-02 7.89500E-03 2.33947E-01
 -1       566-6.07900E-03 7.55900E-03 2.64096E-01
 -1       567-7.42100E-03 7.63500E-03 2.56955E-01
 -1       568 1.62900E-03 7.00400E-03 2.54927E-01
 -1       569-5.35500E-03 7.51500E-03 2.50117E-01
 -1       570-1.14240E-02 7.82400E-03 2.44230E-01
 -1       571-2.36700E-03 7.31500E-03 2.42202E-01
 -1       572-1.39910E-02 7.91200E-03 2.36593E-01
 -1       573-4.10000E-05 7.14000E-03 2.26585E-01
 -1       574 8.80100E-03 6.33200E-03 2.26181E-01
 -1       575 2.04600E-03 6.96900E-03 2.19368E-01
 -1       576 5.66400E-03 6.64300E-03 2.13441E-01
 -1       577-3.18500E-03 7.37300E-03 2.13846E-01
 -1       578-7.62100E-03 7.64600E-03 2.28043E-01
 -1       579-8.51000E-04 7.20300E-03 2.34856E-01
 -1       580-6.66400E-03 7.59300E-03 2.06430E-01
 -1       581-1.02920E-02 7.77700E-03 2.12357E-01
 -1       582-1.35430E-02 7.89900E-03 2.30738E-01
 -1       583-1.27310E-02 7.87200E-03 2.22467E-01
 -1       584-1.95530E-02 8.00100E-03 2.19478E-01
 -1       585-1.36270E-02 7.90100E-03 2.16784E-01
 -1       586-1.71120E-02 7.98000E-03 2.09368E-01
 -1       587 1.53870E-02 5.59900E-03 2.24278E-01
 -1       588 1.33070E-02 5.84200E-03 2.31496E-01
 -1       589 1.50560E-02 5.63800E-03 2.12866E-01
 -1       590 9.84200E-03 6.22300E-03 2.07344E-01
 -1       591 2.39890E-02 4.48900E-03 2.24513E-01
 -1       592 1.94970E-02 5.08900E-03 2.19198E-01
 -1       593 2.36590E-02 4.53500E-03 2.13101E-01
 -1       594 1.93870E-02 5.10400E-03 2.36063E-01
 -1       595 1.28070E-02 5.89900E-03 2.37965E-01
 -1       596 5.20400E-03 6.68700E-03 2.40744E-01
 -1       597 1.12960E-02 6.06700E-03 2.45311E-01
 -1       598 7.76900E-03 6.43700E-03 3.11090E-02
 -1       599 1.05820E-02 6.14400E-03 3.94330E-02
 -1       600 1.66550E-02 5.44600E-03 4.98870E-02
 -1       601 1.28650E-02 5.89200E-03 4.45070E-02
 -1       602 1.81720E-02 5.25800E-03 3.91970E-02
 -1       603-6.12000E-03 7.56100E-03 2.52940E-02
 -1       604-1.48300E-02 7.93500E-03 2.72900E-02
 -1       605 1.69760E-02 5.40600E-03 2.80660E-02
 -1       606 8.85400E-03 6.32700E-03 2.50520E-02
 -1       607 1.26080E-02 5.92100E-03 1.66570E-02
 -1       608 3.38900E-03 6.85200E-03 1.96990E-02
 -1       609-3.10400E-03 7.36700E-03 2.16010E-02
 -1       610-8.85400E-03 7.71000E-03 1.88000E-02
 -1       611-3.24300E-03 7.37700E-03 2.01504E-01
 -1       612 6.39000E-03 6.57400E-03 2.01646E-01
 -1       613 2.71500E-03 6.91200E-03 1.95231E-01
 -1       614 8.29400E-03 6.38400E-03 1.89603E-01
 -1       615-1.33500E-03 7.24000E-03 1.89461E-01
 -1       616-1.03500E-02 7.78000E-03 2.00015E-01
 -1       617-7.61900E-03 7.64600E-03 1.86880E-01
 -1       618-2.02700E-03 7.29100E-03 1.81252E-01
 -1       619-1.30680E-02 7.88400E-03 1.90388E-01
 -1       620-1.37620E-02 7.90500E-03 1.82178E-01
 -1       621-1.65360E-02 7.97100E-03 2.00259E-01
 -1       622-1.31090E-02 7.88500E-03 1.95333E-01
 -1       623-1.92570E-02 8.00000E-03 1.90632E-01
 -1       624 1.57800E-02 5.55200E-03 2.01071E-01
 -1       625 1.61820E-02 5.50300E-03 1.89938E-01
 -1       626 1.21460E-02 5.97300E-03 1.84168E-01
 -1       627 2.56180E-02 4.26100E-03 2.00847E-01
 -1       628 2.21810E-02 4.73600E-03 1.95149E-01
 -1       629 2.60190E-02 4.20300E-03 1.89714E-01
 -1       630-2.44150E-02 7.91500E-03 3.08750E-02
 -1       631-2.05610E-02 8.00000E-03 2.74230E-02
 -1       632-2.71840E-02 7.76700E-03 2.62120E-02
 -1       633-3.06040E-02 7.47400E-03 3.48940E-02
 -1       634-1.76020E-02 7.98700E-03 2.26270E-02
 -1       635 9.35100E-03 6.27500E-03 1.39888E-01
 -1       636 7.44800E-03 6.46900E-03 1.31931E-01
 -1       637 2.34400E-03 6.94400E-03 1.35876E-01
 -1       638-3.93600E-03 7.42400E-03 1.33295E-01
 -1       639-2.02700E-03 7.29100E-03 1.41252E-01
 -1       640 1.72370E-02 5.37400E-03 1.40222E-01
 -1       641 1.21460E-02 5.97300E-03 1.44168E-01
 -1       642-7.61900E-03 7.64600E-03 1.46880E-01
 -1       643-1.33500E-03 7.24000E-03 1.49461E-01
 -1       644 2.71500E-03 6.91200E-03 1.55231E-01
 -1       645 8.29400E-03 6.38400E-03 1.49603E-01
 -1       646 1.61820E-02 5.50300E-03 1.49938E-01
 -1       647 1.68350E-02 5.42400E-03 1.31356E-01
 -1       648 9.84200E-03 6.22300E-03 1.27345E-01
 -1       649-6.66400E-03 7.59300E-03 1.26430E-01
 -1       650-1.10430E-02 7.80900E-03 1.31806E-01
 -1       651-3.24300E-03 7.37700E-03 1.21504E-01
 -1       652 6.04600E-03 6.60700E-03 1.22568E-01
 -1       653 2.37100E-03 6.94100E-03 1.16153E-01
 -1       654-1.03500E-02 7.78000E-03 1.20015E-01
 -1       655 1.54370E-02 5.59300E-03 1.21993E-01
 -1       656 2.60190E-02 4.20300E-03 1.39714E-01
 -1       657 2.32340E-02 4.59300E-03 1.35434E-01
 -1       658 2.56180E-02 4.26100E-03 1.30847E-01
 -1       659-1.30680E-02 7.88400E-03 1.50388E-01
 -1       660-1.37620E-02 7.90500E-03 1.42178E-01
 -1       661-2.11020E-02 7.99700E-03 1.39921E-01
 -1       662-1.56480E-02 7.95400E-03 1.36413E-01
 -1       663-1.83810E-02 7.99500E-03 1.29548E-01
 -1       664-3.24300E-03 7.37700E-03 1.61504E-01
 -1       665 6.39000E-03 6.57400E-03 1.61646E-01
 -1       666-6.66400E-03 7.59300E-03 1.66430E-01
 -1       667-1.03500E-02 7.78000E-03 1.60015E-01
 -1       668-1.65360E-02 7.97100E-03 1.60259E-01
 -1       669-1.31090E-02 7.88500E-03 1.55333E-01
 -1       670-1.92570E-02 8.00000E-03 1.50632E-01
 -1       671 1.57800E-02 5.55200E-03 1.61071E-01
 -1       672 9.84200E-03 6.22300E-03 1.67345E-01
 -1       673 2.56180E-02 4.26100E-03 1.60847E-01
 -1       674 2.21810E-02 4.73600E-03 1.55149E-01
 -1       675 2.60190E-02 4.20300E-03 1.49714E-01
 -1       676 9.35100E-03 6.27500E-03 1.79888E-01
 -1       677 7.44800E-03 6.46900E-03 1.71931E-01
 -1       678 2.34400E-03 6.94400E-03 1.75876E-01
 -1       679-3.93600E-03 7.42400E-03 1.73295E-01
 -1       680 1.68350E-02 5.42400E-03 1.71356E-01
 -1       681-1.10430E-02 7.80900E-03 1.71806E-01
 -1       682 1.72370E-02 5.37400E-03 1.80222E-01
 -1       683 2.60190E-02 4.20300E-03 1.79714E-01
 -1       684 2.32340E-02 4.59300E-03 1.75434E-01
 -1       685 2.56180E-02 4.26100E-03 1.70847E-01
 -1       686-2.11020E-02 7.99700E-03 1.79921E-01
 -1       687-1.56480E-02 7.95400E-03 1.76413E-01
 -1       688-1.83810E-02 7.99500E-03 1.69548E-01
 -1       689 2.05230E-02 4.95600E-03 5.72310E-02
 -1       690 2.43140E-02 4.44400E-03 5.16150E-02
 -1       691 2.84950E-02 3.84300E-03 4.50590E-02
 -1       692 2.54410E-02 4.28600E-03 3.78430E-02
 -1       693 2.31660E-02 4.60200E-03 3.27690E-02
 -1       694 2.37010E-02 4.52900E-03 6.28640E-02
 -1       695 1.60410E-02 5.52000E-03 6.11360E-02
 -1       696 2.54090E-02 4.29000E-03 7.07160E-02
 -1       697 1.15200E-02 6.04200E-03 6.67090E-02
 -1       698 7.72500E-03 6.44200E-03 1.11933E-01
 -1       699-1.56000E-03 7.25600E-03 1.10869E-01
 -1       700-6.01300E-03 7.55500E-03 1.07206E-01
 -1       701-6.48000E-04 7.18700E-03 1.02986E-01
 -1       702-1.30680E-02 7.88400E-03 1.10388E-01
 -1       703-1.21540E-02 7.85200E-03 1.02505E-01
 -1       704-1.65360E-02 7.97100E-03 1.20259E-01
 -1       705-1.31090E-02 7.88500E-03 1.15333E-01
 -1       706-1.92570E-02 8.00000E-03 1.10632E-01
 -1       707 1.54370E-02 5.59300E-03 1.11993E-01
 -1       708 1.15200E-02 6.04200E-03 1.06709E-01
 -1       709 2.56180E-02 4.26100E-03 1.20847E-01
 -1       710 2.18380E-02 4.78200E-03 1.16071E-01
 -1       711 2.56180E-02 4.26100E-03 1.10847E-01
 -1       712 7.72500E-03 6.44200E-03 1.01933E-01
 -1       713 3.28200E-03 6.86200E-03 9.82700E-02
 -1       714 7.54600E-03 6.46000E-03 9.19750E-02
 -1       715-8.27000E-04 7.20100E-03 9.30290E-02
 -1       716-4.25800E-03 7.44500E-03 8.60960E-02
 -1       717-8.53500E-03 7.69400E-03 9.23910E-02
 -1       718-2.04430E-02 8.00100E-03 1.00262E-01
 -1       719-1.33800E-02 7.89400E-03 9.70800E-02
 -1       720-1.68200E-02 7.97600E-03 9.01470E-02
 -1       721 1.54370E-02 5.59300E-03 1.01993E-01
 -1       722 1.54370E-02 5.59300E-03 9.19930E-02
 -1       723 1.13410E-02 6.06200E-03 8.67520E-02
 -1       724 2.56120E-02 4.26100E-03 1.00842E-01
 -1       725 2.18320E-02 4.78300E-03 9.60650E-02
 -1       726 2.56120E-02 4.26100E-03 9.08420E-02
 -1       727-6.26000E-04 7.18600E-03 8.19790E-02
 -1       728 7.54600E-03 6.46000E-03 8.19750E-02
 -1       729 3.48200E-03 6.84400E-03 7.72200E-02
 -1       730 7.72500E-03 6.44200E-03 7.19330E-02
 -1       731-4.47000E-04 7.17200E-03 7.19360E-02
 -1       732-8.33400E-03 7.68400E-03 8.13400E-02
 -1       733-9.13400E-03 7.72400E-03 7.21450E-02
 -1       734-1.47230E-02 7.93200E-03 8.08340E-02
 -1       735-1.10840E-02 7.81100E-03 7.67160E-02
 -1       736-1.55240E-02 7.95100E-03 7.16380E-02
 -1       737 1.54370E-02 5.59300E-03 8.19930E-02
 -1       738 1.54370E-02 5.59300E-03 7.19930E-02
 -1       739 2.54090E-02 4.29000E-03 8.07160E-02
 -1       740 2.16300E-02 4.81000E-03 7.59390E-02
 -1       741 2.61460E-02 4.18500E-03 2.37471E-01
 -1       742 2.66430E-02 4.11400E-03 2.31002E-01
 -1       743 1.77230E-02 5.31400E-03 2.49240E-01
 -1       744 1.01290E-02 6.19300E-03 2.52018E-01
 -1       745 2.64520E-02 4.14100E-03 2.45365E-01
 -1       746 2.52890E-02 4.30700E-03 2.52072E-01
 -1       747 2.42470E-02 4.45300E-03 2.67120E-02
 -1       748 2.37050E-02 4.52800E-03 1.56650E-02
 -1       749 2.69880E-02 4.06400E-03 2.07774E-01
 -1       750-2.02700E-03 7.29100E-03 2.68802E-01
 -1       751-7.67300E-03 7.64900E-03 2.71132E-01
 -1       752 8.07100E-03 6.40700E-03 2.58856E-01
 -1       753 3.92500E-03 6.80400E-03 2.73290E-01
 -1       754 5.51600E-03 6.65700E-03 2.66254E-01
 -1       755 1.40080E-02 5.76100E-03 2.63344E-01
 -1       756-1.11110E-02 7.81200E-03 2.75717E-01
 -1       757-4.01950E-02 5.83200E-03 6.25420E-02
 -1       758-3.87210E-02 6.18100E-03 6.62250E-02
 -1       759-3.95490E-02 5.99000E-03 5.76960E-02
 -1       760-3.49200E-02 6.90500E-03 7.17650E-02
 -1       761-3.33510E-02 7.14000E-03 7.75040E-02
 -1       762-3.24610E-02 7.25800E-03 6.68330E-02
 -1       763-1.91050E-02 8.00000E-03 2.31017E-01
 -1       764-2.39130E-02 7.93400E-03 2.23180E-01
 -1       765-2.44580E-02 7.91400E-03 2.28092E-01
 -1       766 1.78140E-02 5.30300E-03 2.72960E-01
 -1       767 2.67670E-02 4.09600E-03 2.69906E-01
 -1       768 2.04260E-02 4.96900E-03 2.67688E-01
 -1       769 2.29710E-02 4.62900E-03 2.60290E-01
 -1       770 1.54530E-02 5.59100E-03 2.80026E-01
 -1       771 9.09100E-03 6.30200E-03 2.77807E-01
 -1       772 1.55500E-03 7.01000E-03 2.80355E-01
 -1       773 3.22660E-02 3.26700E-03 2.73425E-01
 -1       774 2.74710E-02 3.99300E-03 2.80898E-01
 -1       775-8.68300E-03 7.70200E-03 2.81563E-01
 -1       776-1.61810E-02 7.96500E-03 2.81442E-01
 -1       777-2.31040E-02 7.96000E-03 2.80152E-01
 -1       778-3.53400E-02 6.83600E-03 1.47090E-02
 -1       779-3.08800E-02 7.44400E-03 1.68080E-02
 -1       780-2.87070E-02 7.65200E-03 2.14340E-02
 -1       781-2.55130E-02 7.86600E-03 1.81340E-02
 -1       782-2.02690E-02 8.00100E-03 1.78460E-02
 -1       783-3.89430E-02 6.13100E-03 1.84500E-02
 -1       784-3.42230E-02 7.01300E-03 2.84599E-01
 -1       785-2.80180E-02 7.70700E-03 2.79160E-01
 -1       786-3.26170E-02 7.23800E-03 2.81557E-01
 -1       787-3.30410E-02 7.18200E-03 2.76009E-01
 -1       788-3.86030E-02 6.20700E-03 9.26180E-02
 -1       789-3.60380E-02 6.71600E-03 8.74970E-02
 -1       790-4.05950E-02 5.72900E-03 8.77580E-02
 -1       791-3.75490E-02 6.43000E-03 9.76870E-02
 -1       792-3.22870E-02 7.28000E-03 8.32340E-02
 -1       793-3.02540E-02 7.51000E-03 8.80940E-02
 -1       794-2.75440E-02 7.74200E-03 7.81020E-02
 -1       795-2.78590E-02 7.71900E-03 9.35970E-02
 -1       796-2.40730E-02 7.92800E-03 8.93340E-02
 -1       797-3.51420E-02 6.86900E-03 1.02109E-01
 -1       798-3.15930E-02 7.36400E-03 9.67780E-02
 -1       799-2.54190E-02 7.87000E-03 9.80180E-02
 -1       800-2.30490E-02 7.96100E-03 7.42910E-02
 -1       801-2.19760E-02 7.98500E-03 8.00210E-02
 -1       802-1.92220E-02 8.00000E-03 8.46450E-02
 -1       803-3.66200E-02 6.61000E-03 2.07826E-01
 -1       804-3.30580E-02 7.18000E-03 2.03262E-01
 -1       805-3.04390E-02 7.49100E-03 2.07792E-01
 -1       806-3.58830E-02 6.74300E-03 1.97506E-01
 -1       807-2.96940E-02 7.56400E-03 1.97472E-01
 -1       808-3.77150E-02 6.39600E-03 1.92475E-01
 -1       809-2.72500E-02 7.76300E-03 2.13076E-01
 -1       810-2.36480E-02 7.94300E-03 2.08512E-01
 -1       811-2.48090E-02 7.89900E-03 2.17497E-01
 -1       812-2.59280E-02 7.84400E-03 1.93647E-01
 -1       813-2.30730E-02 7.96000E-03 1.99403E-01
 -1       814-2.03100E-02 8.00100E-03 2.04085E-01
 -1       815-3.86030E-02 6.20700E-03 1.72618E-01
 -1       816-3.66230E-02 6.60900E-03 1.67830E-01
 -1       817-3.75490E-02 6.43000E-03 1.77687E-01
 -1       818-3.30610E-02 7.17900E-03 1.63266E-01
 -1       819-3.04390E-02 7.49100E-03 1.67792E-01
 -1       820-3.58860E-02 6.74300E-03 1.57510E-01
 -1       821-2.96930E-02 7.56400E-03 1.57472E-01
 -1       822-3.77150E-02 6.39600E-03 1.52475E-01
 -1       823-2.85160E-02 7.66800E-03 1.73256E-01
 -1       824-2.49170E-02 7.89400E-03 1.68692E-01
 -1       825-3.51420E-02 6.86900E-03 1.82109E-01
 -1       826-3.15930E-02 7.36400E-03 1.76778E-01
 -1       827-2.60770E-02 7.83600E-03 1.77677E-01
 -1       828-2.59280E-02 7.84400E-03 1.53647E-01
 -1       829-2.30730E-02 7.96000E-03 1.59403E-01
 -1       830-2.03100E-02 8.00100E-03 1.64085E-01
 -1       831-3.86030E-02 6.20700E-03 1.32618E-01
 -1       832-3.66230E-02 6.60900E-03 1.27830E-01
 -1       833-3.75490E-02 6.43000E-03 1.37687E-01
 -1       834-3.30610E-02 7.17900E-03 1.23266E-01
 -1       835-3.04390E-02 7.49100E-03 1.27792E-01
 -1       836-3.58860E-02 6.74300E-03 1.17510E-01
 -1       837-2.96930E-02 7.56500E-03 1.17472E-01
 -1       838-3.77150E-02 6.39600E-03 1.12475E-01
 -1       839-2.85160E-02 7.66800E-03 1.33256E-01
 -1       840-2.49170E-02 7.89400E-03 1.28692E-01
 -1       841-3.51420E-02 6.86900E-03 1.42109E-01
 -1       842-3.15930E-02 7.36400E-03 1.36778E-01
 -1       843-2.60770E-02 7.83600E-03 1.37677E-01
 -1       844-2.59280E-02 7.84400E-03 1.13647E-01
 -1       845-2.30730E-02 7.96000E-03 1.19403E-01
 -1       846-2.03100E-02 8.00100E-03 1.24085E-01
 -1       847-3.25430E-02 7.24800E-03 2.48860E-02
 -1       848-3.75500E-02 6.43000E-03 2.30570E-02
 -1       849-3.60480E-02 6.71400E-03 2.78340E-02
 -1       850-3.56710E-02 6.78000E-03 3.25640E-02
 -1       851-3.52530E-02 6.85000E-03 3.77930E-02
 -1       852-1.45390E-02 7.92700E-03 1.77130E-02
 -1       853-3.56380E-02 6.78500E-03 4.24360E-02
 -1       854-3.68140E-02 6.57400E-03 1.87367E-01
 -1       855-3.08490E-02 7.44800E-03 1.86458E-01
 -1       856-3.68140E-02 6.57400E-03 1.47367E-01
 -1       857-3.08490E-02 7.44800E-03 1.46458E-01
 -1       858-3.68140E-02 6.57400E-03 1.07367E-01
 -1       859-3.08490E-02 7.44800E-03 1.06458E-01
 -1       860-3.74650E-02 6.44700E-03 5.27790E-02
 -1       861-3.41820E-02 7.01900E-03 5.63770E-02
 -1       862-3.15130E-02 7.37300E-03 6.10680E-02
 -1       863-3.65740E-02 6.61900E-03 4.81050E-02
 -1       864-2.76620E-02 7.73400E-03 6.66070E-02
 -1       865-2.10960E-02 7.99700E-03 6.97200E-02
 -1       866-2.41930E-02 7.92400E-03 1.83443E-01
 -1       867-2.58870E-02 7.84600E-03 1.88701E-01
 -1       868-2.41930E-02 7.92400E-03 1.43443E-01
 -1       869-2.58870E-02 7.84600E-03 1.48701E-01
 -1       870-2.41930E-02 7.92400E-03 1.03443E-01
 -1       871-2.58870E-02 7.84600E-03 1.08701E-01
 -1       872 5.00000E-02-0.00000E+00 2.90000E-01
 -1       873 5.00000E-02-0.00000E+00 2.80000E-01
 -1       874 5.00000E-02-0.00000E+00 1.00000E-02
 -1       875 5.00000E-02-0.00000E+00 2.00000E-02
 -1       876 5.00000E-02-0.00000E+00 3.00000E-02
 -1       877 5.00000E-02-0.00000E+00 5.00000E-02
 -1       878 5.00000E-02-0.00000E+00 4.00000E-02
 -1       879 5.00000E-02-0.00000E+00 7.00000E-02
 -1       880 5.00000E-02-0.00000E+00 6.00000E-02
 -1       881 5.00000E-02-0.00000E+00 9.00000E-02
 -1       882 5.00000E-02-0.00000E+00 8.00000E-02
 -1       883 5.00000E-02-0.00000E+00 1.10000E-01
 -1       884 5.00000E-02-0.00000E+00 1.00000E-01
 -1       885 5.00000E-02-0.00000E+00 1.30000E-01
 -1       886 5.00000E-02-0.00000E+00 1.20000E-01
 -1       887 5.00000E-02-0.00000E+00 1.60000E-01
 -1       888 5.00000E-02-0.00000E+00 1.50000E-01
 -1       889 5.00000E-02-0.00000E+00 1.40000E-01
 -1       890 5.00000E-02-0.00000E+00 1.80000E-01
 -1       891 5.00000E-02-0.00000E+00 1.70000E-01
 -1       892 5.00000E-02-0.00000E+00 1.90000E-01
 -1       893 5.00000E-02-0.00000E+00 2.10000E-01
 -1       894 5.00000E-02-0.00000E+00 2.00000E-01
 -1       895 5.00000E-02-0.00000E+00 2.30000E-01
 -1       896 5.00000E-02-0.00000E+00 2.20000E-01
 -1       897 5.00000E-02-0.00000E+00 2.50000E-01
 -1       898 5.00000E-02-0.00000E+00 2.40000E-01
 -1       899 5.00000E-02-0.00000E+00 2.70000E-01
 -1       900 5.00000E-02-0.00000E+00 2.60000E-01
 -1       901-6.18200E-03-3.71500E-03 2.69921E-01
 -1       902 9.01400E-03-2.98000E-03 2.72855E-01
 -1       903-3.21700E-03-3.59700E-03 2.86861E-01
 -1       904-1.65630E-02-3.98100E-03 2.11781E-01
 -1       905-1.43410E-02-3.94700E-03 2.02713E-01
 -1       906-7.69300E-03-3.76900E-03 2.14420E-01
 -1       907 2.26690E-02-2.13300E-03 1.22406E-01
 -1       908 9.02800E-03-2.97900E-03 1.31519E-01
 -1       909 5.59300E-03-3.16900E-03 1.15891E-01
 -1       910-1.61570E-02-3.97600E-03 1.10950E-01
 -1       911-2.55290E-02-3.99300E-03 1.07319E-01
 -1       912-1.68540E-02-3.98400E-03 1.00914E-01
 -1       913-6.16500E-03-3.71400E-03 2.35152E-01
 -1       914 4.76100E-03-3.21400E-03 2.32470E-01
 -1       915-9.24000E-04-3.49500E-03 2.44723E-01
 -1       916 1.07920E-02-2.87700E-03 5.24760E-02
 -1       917 2.36930E-02-2.06500E-03 4.30320E-02
 -1       918 3.00690E-02-1.62900E-03 5.64740E-02
 -1       919 8.73100E-03-2.99600E-03 2.18254E-01
 -1       920-5.01000E-03-3.67000E-03 2.24256E-01
 -1       921 3.66090E-02-1.16100E-03 4.57680E-02
 -1       922-3.48700E-03-3.60800E-03 1.94951E-01
 -1       923 8.18500E-03-3.02700E-03 1.94643E-01
 -1       924 1.15800E-03-3.39700E-03 2.03958E-01
 -1       925-6.74700E-03-3.73500E-03 1.21235E-01
 -1       926-1.73160E-02-3.98900E-03 1.21034E-01
 -1       927-5.52700E-03-3.69000E-03 1.73917E-01
 -1       928 8.18500E-03-3.02700E-03 1.74643E-01
 -1       929-1.75100E-03-3.53300E-03 1.84448E-01
 -1       930-4.47800E-03-3.64900E-03 1.05724E-01
 -1       931-5.52700E-03-3.69000E-03 1.53917E-01
 -1       932 8.18500E-03-3.02700E-03 1.54643E-01
 -1       933-1.75100E-03-3.53300E-03 1.64448E-01
 -1       934 2.01320E-02-2.29900E-03 8.68510E-02
 -1       935 2.91520E-02-1.69300E-03 9.91730E-02
 -1       936 1.02440E-02-2.90900E-03 9.92630E-02
 -1       937-4.70600E-03-3.65800E-03 1.33837E-01
 -1       938-1.75100E-03-3.53300E-03 1.44448E-01
 -1       939 3.47730E-02-1.29500E-03 8.87760E-02
 -1       940-7.32000E-03-3.75600E-03 9.30160E-02
 -1       941-4.31890E-02-3.15700E-03 2.77927E-01
 -1       942-4.11280E-02-3.41100E-03 2.88733E-01
 -1       943-2.19600E-03-3.55300E-03 7.35640E-02
 -1       944 1.18230E-02-2.81600E-03 7.54610E-02
 -1       945 3.36300E-03-3.28700E-03 8.51820E-02
 -1       946 2.45030E-02-2.01000E-03 1.35314E-01
 -1       947-9.27900E-03-3.82000E-03 5.29270E-02
 -1       948 2.38800E-03-3.33600E-03 6.25900E-02
 -1       949 3.74520E-02-1.10000E-03 1.29657E-01
 -1       950-1.62380E-02-3.97700E-03 1.31257E-01
 -1       951-2.76270E-02-3.97900E-03 1.28726E-01
 -1       952 1.73600E-02-2.47600E-03 1.45090E-01
 -1       953 2.72450E-02-1.82400E-03 1.57156E-01
 -1       954 3.55510E-02-1.23900E-03 1.46477E-01
 -1       955 1.73600E-02-2.47600E-03 1.65090E-01
 -1       956 2.72450E-02-1.82400E-03 1.77156E-01
 -1       957 3.47730E-02-1.29500E-03 1.68776E-01
 -1       958-3.01810E-02-3.94700E-03 6.88170E-02
 -1       959-4.07780E-02-3.44600E-03 6.75440E-02
 -1       960-3.68960E-02-3.73200E-03 5.90270E-02
 -1       961-1.68760E-02-3.98400E-03 2.31158E-01
 -1       962-2.64850E-02-3.98700E-03 2.26805E-01
 -1       963-1.61180E-02-3.97500E-03 2.21023E-01
 -1       964 1.73600E-02-2.47600E-03 1.85090E-01
 -1       965 2.72450E-02-1.82400E-03 1.97156E-01
 -1       966 3.47730E-02-1.29500E-03 1.88776E-01
 -1       967 1.73600E-02-2.47600E-03 2.05090E-01
 -1       968 2.72860E-02-1.82200E-03 2.19748E-01
 -1       969 3.47730E-02-1.29500E-03 2.08776E-01
 -1       970-3.88610E-02-3.60900E-03 7.65770E-02
 -1       971 1.94280E-02-2.34400E-03 2.30823E-01
 -1       972 3.47730E-02-1.29500E-03 2.28776E-01
 -1       973 3.01800E-02-1.62100E-03 2.38785E-01
 -1       974 2.20180E-02-2.17600E-03 2.61065E-01
 -1       975 2.73300E-02-1.81900E-03 2.75958E-01
 -1       976-2.69970E-02-3.98400E-03 2.08618E-01
 -1       977 3.73830E-02-1.10500E-03 2.65152E-01
 -1       978-2.84440E-02-3.97100E-03 2.96990E-02
 -1       979-2.43460E-02-3.99700E-03 1.81100E-02
 -1       980-1.30420E-02-3.92100E-03 2.81090E-02
 -1       981-3.86780E-02-3.62200E-03 1.37090E-02
 -1       982-2.92690E-02-3.96100E-03 8.68800E-03
 -1       983-1.48400E-02-3.95600E-03 1.91451E-01
 -1       984-2.66360E-02-3.98600E-03 1.88988E-01
 -1       985-1.57260E-02-3.97000E-03 1.81242E-01
 -1       986-2.87300E-02-3.96700E-03 9.85130E-02
 -1       987-3.73940E-02-3.70500E-03 1.05552E-01
 -1       988-4.08720E-02-3.43700E-03 9.63100E-02
 -1       989-1.84930E-02-3.99700E-03 4.03180E-02
 -1       990-2.67440E-02-3.98600E-03 5.14680E-02
 -1       991-1.48400E-02-3.95600E-03 1.71451E-01
 -1       992-2.66360E-02-3.98600E-03 1.68988E-01
 -1       993-1.57260E-02-3.97000E-03 1.61242E-01
 -1       994-1.48400E-02-3.95600E-03 1.51451E-01
 -1       995-2.66360E-02-3.98600E-03 1.48988E-01
 -1       996-1.51470E-02-3.96100E-03 1.41855E-01
 -1       997 1.31850E-02-2.73400E-03 3.65500E-02
 -1       998-3.51600E-03-3.60900E-03 4.13280E-02
 -1       999 1.50890E-02-2.61800E-03 2.35380E-02
 -1      1000 2.80960E-02-1.76600E-03 1.21430E-02
 -1      1001 3.06620E-02-1.58800E-03 3.13710E-02
 -1      1002 1.47780E-02-2.63700E-03 2.84272E-01
 -1      1003 3.02720E-02-1.61500E-03 2.90134E-01
 -1      1004 5.85800E-03-3.15500E-03 2.57555E-01
 -1      1005-1.89810E-02-4.00000E-03 9.10100E-03
 -1      1006 6.78800E-03-3.10400E-03 1.19230E-02
 -1      1007-8.55500E-03-3.79800E-03 1.54200E-02
 -1      1008 1.63280E-02-2.54100E-03 2.44952E-01
 -1      1009 2.01470E-02-2.29800E-03 1.08394E-01
 -1      1010 3.43070E-02-1.32900E-03 1.12789E-01
 -1      1011 3.23250E-02-1.47000E-03 7.50640E-02
 -1      1012 1.85010E-02-2.40400E-03 6.52740E-02
 -1      1013-2.11810E-02-4.00200E-03 9.03540E-02
 -1      1014-3.20050E-02-3.91200E-03 8.86690E-02
 -1      1015-2.62700E-02-3.98900E-03 7.86890E-02
 -1      1016-9.60100E-03-3.83000E-03 2.55028E-01
 -1      1017 7.71000E-04-3.41600E-03 2.63000E-02
 -1      1018-3.01800E-02-3.94700E-03 2.90190E-01
 -1      1019-4.54100E-02-2.75800E-03 2.94913E-01
 -1      1020-3.16260E-02-3.92000E-03 4.13520E-02
 -1      1021 3.50490E-02-1.27500E-03 2.51645E-01
 -1      1022-2.44880E-02-3.99700E-03 2.51880E-01
 -1      1023-1.73220E-02-3.98900E-03 2.66036E-01
 -1      1024-2.89510E-02-3.96500E-03 2.60279E-01
 -1      1025-4.40790E-02-3.01700E-03 5.39120E-02
 -1      1026-1.98060E-02-4.00200E-03 2.78007E-01
 -1      1027-3.44580E-02-3.84000E-03 2.79889E-01
 -1      1028-2.97480E-02-3.95400E-03 2.69658E-01
 -1      1029-4.11070E-02-3.41300E-03 2.69867E-01
 -1      1030-3.73860E-02-3.70500E-03 2.62108E-01
 -1      1031-4.35760E-02-3.09900E-03 2.23108E-01
 -1      1032-3.82090E-02-3.65400E-03 2.14956E-01
 -1      1033-3.61050E-02-3.77200E-03 2.26216E-01
 -1      1034-3.82090E-02-3.65400E-03 1.94956E-01
 -1      1035-3.85040E-02-3.63400E-03 2.05271E-01
 -1      1036-3.82090E-02-3.65400E-03 1.74956E-01
 -1      1037-3.84250E-02-3.64000E-03 1.85349E-01
 -1      1038-2.81100E-02-3.97400E-03 2.38308E-01
 -1      1039-3.52120E-02-3.81100E-03 2.45795E-01
 -1      1040-3.82090E-02-3.65400E-03 1.54956E-01
 -1      1041-3.84250E-02-3.64000E-03 1.65349E-01
 -1      1042-3.82320E-02-3.65300E-03 1.34953E-01
 -1      1043-3.84330E-02-3.63900E-03 1.45337E-01
 -1      1044-3.99080E-02-3.52600E-03 2.37364E-01
 -1      1045-4.04180E-02-3.48100E-03 1.16302E-01
 -1      1046-3.93840E-02-3.56900E-03 1.25142E-01
 -1      1047-2.89660E-02-3.96500E-03 1.17088E-01
 -1      1048-2.73840E-02-3.98100E-03 2.17975E-01
 -1      1049-2.66390E-02-3.98600E-03 1.99558E-01
 -1      1050-2.66400E-02-3.98600E-03 1.79558E-01
 -1      1051-2.66400E-02-3.98600E-03 1.59558E-01
 -1      1052-2.65550E-02-3.98700E-03 1.39435E-01
 -1      1053-1.70510E-02-3.98600E-03 2.92223E-01
 -1      1054-4.41110E-02-3.01100E-03 2.44384E-01
 -1      1055-2.19460E-02-4.00100E-03 6.07190E-02
 -1      1056-1.73010E-02-3.98900E-03 7.12630E-02
 -1      1057-1.20280E-02-3.89700E-03 8.26390E-02
 -1      1058-3.91660E-02-3.58600E-03 2.53043E-01
 -1      1059-3.80560E-02-3.66400E-03 4.90410E-02
 -1      1060-4.30430E-02-3.17800E-03 4.31040E-02
 -1      1061-3.70760E-02-3.72200E-03 2.21150E-02
 -1      1062-4.11110E-02-3.41300E-03 3.27230E-02
 -1      1063-4.41500E-02-3.00400E-03 2.41570E-02
 -1      1064-4.19750E-02-3.31700E-03 8.58500E-02
 -1      1065-1.07360E-02-3.86300E-03 6.36830E-02
 -1      1066-1.43710E-02-3.94700E-03 2.42779E-01
 -1      1067-4.56740E-02-2.69800E-03 5.00000E-03
 -1      1068-4.79640E-02-1.97800E-03 2.92456E-01
 -1      1069-4.79640E-02-1.97800E-03 2.97456E-01
 -1      1070-4.31590E-02-3.16100E-03 2.97456E-01
 -1      1071 4.01350E-02-9.00000E-04 2.95067E-01
 -1      1072 4.01350E-02-9.00000E-04 2.85067E-01
 -1      1073 3.03680E-02-1.60800E-03 2.95067E-01
 -1      1074 3.90470E-02-9.81000E-04 6.07200E-03
 -1      1075 3.90470E-02-9.81000E-04 1.60720E-02
 -1      1076 2.92800E-02-1.68400E-03 6.07200E-03
 -1      1077-4.45480E-02-2.93300E-03 1.68550E-02
 -1      1078-4.45480E-02-2.93300E-03 1.18550E-02
 -1      1079-3.97850E-02-3.53700E-03 6.85500E-03
 -1      1080-4.73300E-02-2.22500E-03 2.20780E-02
 -1      1081-4.73300E-02-2.22500E-03 2.70780E-02
 -1      1082-3.78780E-02-3.67500E-03 1.79120E-02
 -1      1083-4.37330E-02-3.07400E-03 2.10570E-02
 -1      1084-4.06230E-02-3.46200E-03 2.31360E-02
 -1      1085-4.57870E-02-2.67200E-03 3.63620E-02
 -1      1086-4.57870E-02-2.67200E-03 3.13620E-02
 -1      1087-4.26340E-02-3.23400E-03 2.84400E-02
 -1      1088-4.67680E-02-2.40800E-03 4.15520E-02
 -1      1089-4.67680E-02-2.40800E-03 4.65520E-02
 -1      1090-4.20780E-02-3.30500E-03 3.79140E-02
 -1      1091-4.72940E-02-2.23800E-03 5.69560E-02
 -1      1092-4.72940E-02-2.23800E-03 5.19560E-02
 -1      1093-4.42310E-02-2.99000E-03 4.95210E-02
 -1      1094-4.10750E-02-3.41700E-03 5.14760E-02
 -1      1095-4.05540E-02-3.46800E-03 4.60730E-02
 -1      1096-4.56170E-02-2.71100E-03 6.87720E-02
 -1      1097-4.56170E-02-2.71100E-03 6.37720E-02
 -1      1098-4.36410E-02-3.08800E-03 5.95130E-02
 -1      1099-3.88390E-02-3.61100E-03 6.32850E-02
 -1      1100-4.04970E-02-3.47300E-03 5.64690E-02
 -1      1101-4.46410E-02-2.91500E-03 7.82890E-02
 -1      1102-4.46410E-02-2.91500E-03 7.32890E-02
 -1      1103-3.98200E-02-3.53400E-03 7.20600E-02
 -1      1104-4.62260E-02-2.56100E-03 8.79250E-02
 -1      1105-4.62260E-02-2.56100E-03 8.29250E-02
 -1      1106-4.04200E-02-3.48100E-03 8.12140E-02
 -1      1107-4.56650E-02-2.70000E-03 9.81550E-02
 -1      1108-4.56650E-02-2.70000E-03 9.31550E-02
 -1      1109-4.14240E-02-3.38000E-03 9.10800E-02
 -1      1110-4.38940E-02-3.04800E-03 1.07776E-01
 -1      1111-4.38940E-02-3.04800E-03 1.02776E-01
 -1      1112-3.91340E-02-3.58900E-03 1.00931E-01
 -1      1113-4.54340E-02-2.75300E-03 1.18151E-01
 -1      1114-4.54340E-02-2.75300E-03 1.13151E-01
 -1      1115-3.89070E-02-3.60600E-03 1.10927E-01
 -1      1116-4.49070E-02-2.86400E-03 1.27571E-01
 -1      1117-4.49070E-02-2.86400E-03 1.22571E-01
 -1      1118-3.99010E-02-3.52700E-03 1.20722E-01
 -1      1119-4.43210E-02-2.97400E-03 1.37476E-01
 -1      1120-4.43210E-02-2.97400E-03 1.32476E-01
 -1      1121-3.88080E-02-3.61300E-03 1.30047E-01
 -1      1122-4.44230E-02-2.95600E-03 1.47669E-01
 -1      1123-4.44230E-02-2.95600E-03 1.42669E-01
 -1      1124-3.83320E-02-3.64600E-03 1.40145E-01
 -1      1125-4.43090E-02-2.97600E-03 1.57478E-01
 -1      1126-4.43090E-02-2.97600E-03 1.52478E-01
 -1      1127-3.83210E-02-3.64700E-03 1.50147E-01
 -1      1128-4.44190E-02-2.95700E-03 1.67674E-01
 -1      1129-4.44190E-02-2.95700E-03 1.62674E-01
 -1      1130-3.83170E-02-3.64700E-03 1.60152E-01
 -1      1131-4.43090E-02-2.97600E-03 1.77478E-01
 -1      1132-4.43090E-02-2.97600E-03 1.72478E-01
 -1      1133-3.83170E-02-3.64700E-03 1.70152E-01
 -1      1134-4.44190E-02-2.95700E-03 1.87674E-01
 -1      1135-4.44190E-02-2.95700E-03 1.82674E-01
 -1      1136-3.83170E-02-3.64700E-03 1.80152E-01
 -1      1137-4.43090E-02-2.97600E-03 1.97478E-01
 -1      1138-4.43090E-02-2.97600E-03 1.92478E-01
 -1      1139-3.83170E-02-3.64700E-03 1.90152E-01
 -1      1140-4.44590E-02-2.94900E-03 2.07635E-01
 -1      1141-4.44590E-02-2.94900E-03 2.02635E-01
 -1      1142-3.83560E-02-3.64400E-03 2.00113E-01
 -1      1143-4.43090E-02-2.97600E-03 2.17478E-01
 -1      1144-4.43090E-02-2.97600E-03 2.12478E-01
 -1      1145-3.83560E-02-3.64400E-03 2.10113E-01
 -1      1146-4.70390E-02-2.32400E-03 2.26554E-01
 -1      1147-4.70390E-02-2.32400E-03 2.21554E-01
 -1      1148-4.08980E-02-3.43500E-03 2.19032E-01
 -1      1149-4.51740E-02-2.80900E-03 2.38682E-01
 -1      1150-4.51740E-02-2.80900E-03 2.33682E-01
 -1      1151-4.32380E-02-3.15000E-03 2.28108E-01
 -1      1152-3.98490E-02-3.53100E-03 2.24662E-01
 -1      1153-3.80080E-02-3.66700E-03 2.31790E-01
 -1      1154-4.73100E-02-2.23200E-03 2.47192E-01
 -1      1155-4.73100E-02-2.23200E-03 2.42192E-01
 -1      1156-4.20150E-02-3.31200E-03 2.40874E-01
 -1      1157-4.47960E-02-2.88600E-03 2.56521E-01
 -1      1158-4.47960E-02-2.88600E-03 2.51521E-01
 -1      1159-4.16450E-02-3.35500E-03 2.48714E-01
 -1      1160-4.57850E-02-2.67200E-03 2.69933E-01
 -1      1161-4.57850E-02-2.67200E-03 2.64933E-01
 -1      1162-3.92480E-02-3.58000E-03 2.65987E-01
 -1      1163-4.38900E-02-3.04800E-03 2.61054E-01
 -1      1164-3.82760E-02-3.65000E-03 2.57575E-01
 -1      1165-4.68430E-02-2.38500E-03 2.78963E-01
 -1      1166-4.68430E-02-2.38500E-03 2.73963E-01
 -1      1167-4.21500E-02-3.29600E-03 2.73897E-01
 -1      1168-4.57950E-02-2.67000E-03 2.89366E-01
 -1      1169-4.57950E-02-2.67000E-03 2.84366E-01
 -1      1170-4.21600E-02-3.29500E-03 2.83330E-01
 -1      1171-4.32780E-02-3.14400E-03 2.91823E-01
 -1      1172 4.03290E-02-8.85000E-04 2.56850E-02
 -1      1173 4.03290E-02-8.85000E-04 3.56850E-02
 -1      1174 2.93790E-02-1.67700E-03 2.17570E-02
 -1      1175 4.33020E-02-6.59000E-04 4.28840E-02
 -1      1176 4.33020E-02-6.59000E-04 5.28840E-02
 -1      1177 3.36360E-02-1.37700E-03 3.85690E-02
 -1      1178 4.11610E-02-8.22000E-04 6.75320E-02
 -1      1179 4.11610E-02-8.22000E-04 7.75320E-02
 -1      1180 4.00330E-02-9.08000E-04 5.82370E-02
 -1      1181 3.33390E-02-1.39800E-03 5.11210E-02
 -1      1182 3.11970E-02-1.55000E-03 6.57690E-02
 -1      1183 4.23840E-02-7.29000E-04 8.43880E-02
 -1      1184 4.23840E-02-7.29000E-04 9.43880E-02
 -1      1185 3.35490E-02-1.38300E-03 8.19200E-02
 -1      1186 4.21510E-02-7.47000E-04 1.06394E-01
 -1      1187 4.21510E-02-7.47000E-04 1.16394E-01
 -1      1188 3.95750E-02-9.42000E-04 9.95860E-02
 -1      1189 3.19630E-02-1.49600E-03 9.39740E-02
 -1      1190 3.17290E-02-1.51200E-03 1.05981E-01
 -1      1191 4.37230E-02-6.26000E-04 1.24829E-01
 -1      1192 4.37230E-02-6.26000E-04 1.34829E-01
 -1      1193 3.58790E-02-1.21500E-03 1.21223E-01
 -1      1194 4.27730E-02-6.99000E-04 1.43239E-01
 -1      1195 4.27730E-02-6.99000E-04 1.53239E-01
 -1      1196 3.65020E-02-1.16900E-03 1.38067E-01
 -1      1197 4.23840E-02-7.29000E-04 1.64388E-01
 -1      1198 4.23840E-02-7.29000E-04 1.74388E-01
 -1      1199 3.86220E-02-1.01300E-03 1.58578E-01
 -1      1200 3.13980E-02-1.53600E-03 1.51817E-01
 -1      1201 3.10090E-02-1.56300E-03 1.62966E-01
 -1      1202 4.23840E-02-7.29000E-04 1.84388E-01
 -1      1203 4.23840E-02-7.29000E-04 1.94388E-01
 -1      1204 3.86220E-02-1.01300E-03 1.78578E-01
 -1      1205 3.10090E-02-1.56300E-03 1.72966E-01
 -1      1206 3.10090E-02-1.56300E-03 1.82966E-01
 -1      1207 4.23840E-02-7.29000E-04 2.04388E-01
 -1      1208 4.23840E-02-7.29000E-04 2.14388E-01
 -1      1209 3.86220E-02-1.01300E-03 1.98578E-01
 -1      1210 3.10090E-02-1.56300E-03 1.92966E-01
 -1      1211 3.10090E-02-1.56300E-03 2.02966E-01
 -1      1212 4.23840E-02-7.29000E-04 2.24388E-01
 -1      1213 4.23840E-02-7.29000E-04 2.34388E-01
 -1      1214 3.86420E-02-1.01100E-03 2.19874E-01
 -1      1215 3.10300E-02-1.56200E-03 2.14262E-01
 -1      1216 3.10300E-02-1.56200E-03 2.24262E-01
 -1      1217 4.25230E-02-7.19000E-04 2.45823E-01
 -1      1218 4.25230E-02-7.19000E-04 2.55823E-01
 -1      1219 4.00890E-02-9.03000E-04 2.39392E-01
 -1      1220 3.24770E-02-1.45900E-03 2.33780E-01
 -1      1221 3.26150E-02-1.45000E-03 2.45215E-01
 -1      1222 4.36890E-02-6.29000E-04 2.62576E-01
 -1      1223 4.36890E-02-6.29000E-04 2.72576E-01
 -1      1224 3.62160E-02-1.19000E-03 2.58399E-01
 -1      1225 3.86640E-02-1.01000E-03 2.77979E-01
 -1      1226 3.23570E-02-1.46800E-03 2.70555E-01
 -1      1227 2.88010E-02-1.71700E-03 2.83046E-01
 -1      1228-2.82310E-02-3.97300E-03 4.34400E-03
 -1      1229-3.50840E-02-3.81600E-03 4.34400E-03
 -1      1230-3.39760E-02-3.85700E-03 1.11990E-02
 -1      1231-2.30870E-02-4.00000E-03 4.55000E-03
 -1      1232-1.38110E-02-3.93700E-03 4.55000E-03
 -1      1233-2.41250E-02-3.99800E-03 8.89400E-03
 -1      1234 8.85400E-03-2.98900E-03 5.96200E-03
 -1      1235-9.25000E-04-3.49600E-03 5.96200E-03
 -1      1236-8.59900E-03-3.79900E-03 7.71000E-03
 -1      1237-1.37670E-02-3.93600E-03 1.22600E-02
 -1      1238-8.82000E-04-3.49400E-03 1.36720E-02
 -1      1239 1.95090E-02-2.33900E-03 6.07200E-03
 -1      1240 1.74450E-02-2.47100E-03 1.20330E-02
 -1      1241-2.86860E-02-3.96800E-03 2.95095E-01
 -1      1242-3.55400E-02-3.79800E-03 2.95095E-01
 -1      1243-3.56590E-02-3.79200E-03 2.89461E-01
 -1      1244-4.10090E-02-3.42300E-03 2.94366E-01
 -1      1245-2.21220E-02-4.00100E-03 2.96112E-01
 -1      1246-1.28460E-02-3.91600E-03 2.96112E-01
 -1      1247-2.36160E-02-3.99900E-03 2.91207E-01
 -1      1248-5.93000E-03-3.70500E-03 2.93431E-01
 -1      1249 3.85300E-03-3.26100E-03 2.93431E-01
 -1      1250-1.01320E-02-3.84600E-03 2.89542E-01
 -1      1251 2.05970E-02-2.26900E-03 2.95067E-01
 -1      1252 5.78300E-03-3.15900E-03 2.85567E-01
 -1      1253 1.28490E-02-2.75500E-03 2.92136E-01
 -1      1254 2.25260E-02-2.14200E-03 2.87203E-01
 -1      1255 1.41800E-03-3.38400E-03 2.71388E-01
 -1      1256 2.90000E-03-3.31000E-03 2.79858E-01
 -1      1257-4.69900E-03-3.65800E-03 2.78391E-01
 -1      1258-1.61000E-04-3.46000E-03 2.63738E-01
 -1      1259 7.43600E-03-3.06900E-03 2.65205E-01
 -1      1260-1.15090E-02-3.88400E-03 2.82434E-01
 -1      1261-1.29920E-02-3.91900E-03 2.73964E-01
 -1      1262-1.86900E-03-3.53800E-03 2.56291E-01
 -1      1263-7.89100E-03-3.77500E-03 2.62474E-01
 -1      1264-1.34610E-02-3.93000E-03 2.60532E-01
 -1      1265-1.17510E-02-3.89000E-03 2.67978E-01
 -1      1266-1.85640E-02-3.99800E-03 2.72022E-01
 -1      1267 1.18960E-02-2.81200E-03 2.78564E-01
 -1      1268 1.55170E-02-2.59200E-03 2.66960E-01
 -1      1269 2.46740E-02-1.99900E-03 2.68511E-01
 -1      1270 1.81740E-02-2.42500E-03 2.74407E-01
 -1      1271 1.39400E-02-2.68900E-03 2.59310E-01
 -1      1272 2.10550E-02-2.23900E-03 2.80115E-01
 -1      1273-1.84280E-02-3.99700E-03 2.85115E-01
 -1      1274-1.54520E-02-3.96600E-03 2.07247E-01
 -1      1275-1.10160E-02-3.87100E-03 2.08566E-01
 -1      1276-1.21270E-02-3.89900E-03 2.13100E-01
 -1      1277-2.17800E-02-4.00100E-03 2.10200E-01
 -1      1278-2.06690E-02-4.00200E-03 2.05666E-01
 -1      1279-1.19050E-02-3.89400E-03 2.17721E-01
 -1      1280-1.63400E-02-3.97800E-03 2.16402E-01
 -1      1281-2.19730E-02-4.00100E-03 2.14878E-01
 -1      1282-2.17510E-02-4.00100E-03 2.19499E-01
 -1      1283-2.71900E-02-3.98200E-03 2.13297E-01
 -1      1284-6.58900E-03-3.73000E-03 2.03336E-01
 -1      1285-3.26700E-03-3.59900E-03 2.09189E-01
 -1      1286-8.91300E-03-3.80900E-03 1.98832E-01
 -1      1287-1.16400E-03-3.50600E-03 1.99455E-01
 -1      1288-9.16200E-03-3.81700E-03 1.93201E-01
 -1      1289-1.45900E-02-3.95100E-03 1.97082E-01
 -1      1290-2.68180E-02-3.98500E-03 2.04088E-01
 -1      1291-2.04900E-02-4.00200E-03 2.01136E-01
 -1      1292-2.07400E-02-4.00200E-03 1.95505E-01
 -1      1293 5.21000E-04-3.42800E-03 2.16337E-01
 -1      1294 1.86200E-03-3.36200E-03 2.21255E-01
 -1      1295-6.35200E-03-3.72100E-03 2.19338E-01
 -1      1296 4.94500E-03-3.20400E-03 2.11106E-01
 -1      1297-1.05630E-02-3.85800E-03 2.22640E-01
 -1      1298 1.58500E-02-2.57100E-03 1.26962E-01
 -1      1299 7.31100E-03-3.07500E-03 1.23705E-01
 -1      1300 1.41330E-02-2.67700E-03 1.19148E-01
 -1      1301 2.35860E-02-2.07200E-03 1.28860E-01
 -1      1302 1.67670E-02-2.51400E-03 1.33416E-01
 -1      1303 1.28710E-02-2.75300E-03 1.12143E-01
 -1      1304 2.14080E-02-2.21600E-03 1.15400E-01
 -1      1305 3.00620E-02-1.63000E-03 1.26031E-01
 -1      1306 3.09780E-02-1.56500E-03 1.32486E-01
 -1      1307 2.84880E-02-1.73900E-03 1.17597E-01
 -1      1308 2.72270E-02-1.82600E-03 1.10591E-01
 -1      1309 1.14300E-03-3.39800E-03 1.26377E-01
 -1      1310-5.76000E-04-3.47900E-03 1.18563E-01
 -1      1311-5.72600E-03-3.69800E-03 1.27536E-01
 -1      1312 2.16200E-03-3.34800E-03 1.32678E-01
 -1      1313 3.64000E-03-3.27200E-03 1.37983E-01
 -1      1314-3.22800E-03-3.59700E-03 1.39143E-01
 -1      1315 7.80700E-03-3.04800E-03 1.44769E-01
 -1      1316 1.31940E-02-2.73400E-03 1.38304E-01
 -1      1317 2.09320E-02-2.24700E-03 1.40202E-01
 -1      1318-5.61200E-03-3.69300E-03 1.13479E-01
 -1      1319 5.58000E-04-3.42600E-03 1.10807E-01
 -1      1320 2.88400E-03-3.31100E-03 1.02493E-01
 -1      1321 7.91900E-03-3.04200E-03 1.07577E-01
 -1      1322 1.51960E-02-2.61100E-03 1.03829E-01
 -1      1323-2.08430E-02-4.00200E-03 1.09134E-01
 -1      1324-2.11920E-02-4.00200E-03 1.04116E-01
 -1      1325-1.65060E-02-3.98000E-03 1.05932E-01
 -1      1326-2.25620E-02-4.00100E-03 1.14019E-01
 -1      1327-2.72480E-02-3.98200E-03 1.12204E-01
 -1      1328-1.06650E-02-3.86100E-03 1.03319E-01
 -1      1329-1.03160E-02-3.85100E-03 1.08337E-01
 -1      1330-1.14510E-02-3.88200E-03 1.16092E-01
 -1      1331-1.20310E-02-3.89700E-03 1.21135E-01
 -1      1332-1.67370E-02-3.98300E-03 1.15992E-01
 -1      1333-2.31410E-02-4.00000E-03 1.19061E-01
 -1      1334-2.71290E-02-3.98300E-03 1.02916E-01
 -1      1335-2.27920E-02-4.00000E-03 9.97130E-02
 -1      1336-3.14630E-02-3.92400E-03 1.06435E-01
 -1      1337-3.30630E-02-3.88500E-03 1.02032E-01
 -1      1338-3.31820E-02-3.88100E-03 1.11320E-01
 -1      1339-1.20860E-02-3.89800E-03 9.69650E-02
 -1      1340-5.89900E-03-3.70400E-03 9.93700E-02
 -1      1341-1.42490E-02-3.94500E-03 9.16850E-02
 -1      1342-1.90170E-02-4.00000E-03 9.56340E-02
 -1      1343-2.49550E-02-3.99500E-03 9.44330E-02
 -1      1344-7.01000E-04-3.48500E-03 2.33811E-01
 -1      1345 1.91800E-03-3.36000E-03 2.38596E-01
 -1      1346-3.54400E-03-3.61000E-03 2.39937E-01
 -1      1347-5.58800E-03-3.69200E-03 2.29704E-01
 -1      1348-1.24000E-04-3.45800E-03 2.28363E-01
 -1      1349-1.02680E-02-3.85000E-03 2.38966E-01
 -1      1350-7.64600E-03-3.76700E-03 2.43751E-01
 -1      1351-1.15200E-02-3.88400E-03 2.33155E-01
 -1      1352-1.09420E-02-3.86900E-03 2.27707E-01
 -1      1353-1.56240E-02-3.96800E-03 2.36969E-01
 -1      1354 7.70400E-03-3.05400E-03 2.44837E-01
 -1      1355 1.05450E-02-2.89100E-03 2.38711E-01
 -1      1356 6.74600E-03-3.10700E-03 2.25362E-01
 -1      1357 1.20960E-02-2.80000E-03 2.31647E-01
 -1      1358 1.40800E-02-2.68000E-03 2.24539E-01
 -1      1359 1.78780E-02-2.44300E-03 2.37887E-01
 -1      1360 2.46700E-03-3.33200E-03 2.51139E-01
 -1      1361 1.10940E-02-2.85900E-03 2.51253E-01
 -1      1362-5.26200E-03-3.68000E-03 2.49876E-01
 -1      1363-1.19860E-02-3.89600E-03 2.48904E-01
 -1      1364 1.72430E-02-2.48400E-03 4.77540E-02
 -1      1365 2.68810E-02-1.84900E-03 4.97530E-02
 -1      1366 2.04320E-02-2.27900E-03 5.44750E-02
 -1      1367 1.19890E-02-2.80600E-03 4.45130E-02
 -1      1368 1.84400E-02-2.40800E-03 3.97910E-02
 -1      1369 1.46470E-02-2.64500E-03 5.88750E-02
 -1      1370 2.42860E-02-2.02500E-03 6.08740E-02
 -1      1371 7.60000E-04-3.41600E-03 5.27010E-02
 -1      1372 6.59100E-03-3.11500E-03 5.75330E-02
 -1      1373-3.44400E-03-3.60600E-03 5.77590E-02
 -1      1374-6.39700E-03-3.72300E-03 4.71280E-02
 -1      1375 3.64000E-03-3.27200E-03 4.69020E-02
 -1      1376 1.04460E-02-2.89700E-03 6.39320E-02
 -1      1377 4.83700E-03-3.21000E-03 3.89390E-02
 -1      1378 3.01520E-02-1.62300E-03 4.44000E-02
 -1      1379 2.71770E-02-1.82900E-03 3.72010E-02
 -1      1380 2.19250E-02-2.18200E-03 3.39600E-02
 -1      1381 2.54140E-02-1.94900E-03 7.01690E-02
 -1      1382 9.26100E-03-2.96500E-03 2.04524E-01
 -1      1383 1.30460E-02-2.74300E-03 2.11672E-01
 -1      1384 2.23240E-02-2.15500E-03 2.12419E-01
 -1      1385 1.80100E-02-2.43500E-03 2.19001E-01
 -1      1386 2.33580E-02-2.08700E-03 2.25286E-01
 -1      1387-1.64970E-02-3.98000E-03 2.26091E-01
 -1      1388 2.35000E-03-3.33800E-03 1.94797E-01
 -1      1389 4.67200E-03-3.21900E-03 1.99301E-01
 -1      1390-2.61900E-03-3.57100E-03 1.89699E-01
 -1      1391 3.21800E-03-3.29400E-03 1.89545E-01
 -1      1392-8.29400E-03-3.78900E-03 1.87949E-01
 -1      1393 1.27730E-02-2.75900E-03 1.99866E-01
 -1      1394 7.80700E-03-3.04800E-03 1.84769E-01
 -1      1395 1.27730E-02-2.75900E-03 1.89866E-01
 -1      1396 2.23030E-02-2.15700E-03 1.91123E-01
 -1      1397 1.77170E-02-2.45400E-03 1.95900E-01
 -1      1398 2.23030E-02-2.15700E-03 2.01123E-01
 -1      1399-1.67770E-02-3.98300E-03 1.26145E-01
 -1      1400-1.14920E-02-3.88300E-03 1.26246E-01
 -1      1401-1.04710E-02-3.85600E-03 1.32547E-01
 -1      1402-2.19330E-02-4.00100E-03 1.29991E-01
 -1      1403-2.24720E-02-4.00100E-03 1.24880E-01
 -1      1404-2.82970E-02-3.97200E-03 1.22907E-01
 -1      1405 1.33100E-03-3.38900E-03 1.74280E-01
 -1      1406 3.21800E-03-3.29400E-03 1.79545E-01
 -1      1407-3.63800E-03-3.61400E-03 1.79182E-01
 -1      1408-3.63800E-03-3.61400E-03 1.69182E-01
 -1      1409 3.21800E-03-3.29400E-03 1.69545E-01
 -1      1410-1.06250E-02-3.86000E-03 1.77579E-01
 -1      1411-8.73700E-03-3.80300E-03 1.82845E-01
 -1      1412-1.01830E-02-3.84800E-03 1.72684E-01
 -1      1413-8.29400E-03-3.78900E-03 1.67949E-01
 -1      1414-1.52830E-02-3.96300E-03 1.76346E-01
 -1      1415 1.27730E-02-2.75900E-03 1.79866E-01
 -1      1416 7.80700E-03-3.04800E-03 1.64769E-01
 -1      1417 1.27730E-02-2.75900E-03 1.69866E-01
 -1      1418 2.23030E-02-2.15700E-03 1.71123E-01
 -1      1419 1.77170E-02-2.45400E-03 1.75900E-01
 -1      1420 2.23030E-02-2.15700E-03 1.81123E-01
 -1      1421-1.52830E-02-3.96300E-03 1.86346E-01
 -1      1422 1.46400E-03-3.38200E-03 9.61400E-02
 -1      1423 1.33100E-03-3.38900E-03 1.54280E-01
 -1      1424 3.21800E-03-3.29400E-03 1.59545E-01
 -1      1425-3.63800E-03-3.61400E-03 1.59182E-01
 -1      1426-3.63800E-03-3.61400E-03 1.49182E-01
 -1      1427 3.21800E-03-3.29400E-03 1.49545E-01
 -1      1428-1.06250E-02-3.86000E-03 1.57579E-01
 -1      1429-8.73700E-03-3.80300E-03 1.62845E-01
 -1      1430-1.01830E-02-3.84800E-03 1.52684E-01
 -1      1431-8.29400E-03-3.78900E-03 1.47949E-01
 -1      1432-1.52830E-02-3.96300E-03 1.56346E-01
 -1      1433 1.27730E-02-2.75900E-03 1.59866E-01
 -1      1434 1.27730E-02-2.75900E-03 1.49866E-01
 -1      1435 2.23030E-02-2.15700E-03 1.51123E-01
 -1      1436 1.77170E-02-2.45400E-03 1.55900E-01
 -1      1437 2.23030E-02-2.15700E-03 1.61123E-01
 -1      1438-1.52830E-02-3.96300E-03 1.66346E-01
 -1      1439 2.46420E-02-2.00100E-03 9.30120E-02
 -1      1440 1.97000E-02-2.32700E-03 9.92180E-02
 -1      1441 1.51880E-02-2.61200E-03 9.30570E-02
 -1      1442 2.74530E-02-1.81000E-03 8.78140E-02
 -1      1443 6.80400E-03-3.10400E-03 9.22230E-02
 -1      1444 1.17490E-02-2.82000E-03 8.60170E-02
 -1      1445 2.62290E-02-1.89400E-03 8.09570E-02
 -1      1446 7.59300E-03-3.06000E-03 8.03220E-02
 -1      1447 1.59780E-02-2.56300E-03 8.11560E-02
 -1      1448 2.20760E-02-2.17200E-03 7.52620E-02
 -1      1449 2.46500E-02-2.00000E-03 1.03784E-01
 -1      1450-1.97800E-03-3.54300E-03 8.90990E-02
 -1      1451-9.92500E-03-3.84000E-03 1.37846E-01
 -1      1452-8.44700E-03-3.79400E-03 1.43151E-01
 -1      1453-1.56920E-02-3.96900E-03 1.36556E-01
 -1      1454-1.49940E-02-3.95800E-03 1.46653E-01
 -1      1455-9.67400E-03-3.83300E-03 8.78270E-02
 -1      1456-4.33000E-03-3.64300E-03 8.39100E-02
 -1      1457-1.66040E-02-3.98100E-03 8.64960E-02
 -1      1458-3.77970E-02-3.68000E-03 2.84311E-01
 -1      1459-3.88320E-02-3.61100E-03 2.78908E-01
 -1      1460-3.77860E-02-3.68100E-03 2.74878E-01
 -1      1461-3.23190E-02-3.90400E-03 2.85040E-01
 -1      1462 4.81500E-03-3.21100E-03 7.45130E-02
 -1      1463 5.84000E-04-3.42500E-03 7.93730E-02
 -1      1464 9.60000E-05-3.44800E-03 6.80770E-02
 -1      1465 7.10600E-03-3.08700E-03 6.90260E-02
 -1      1466-7.11100E-03-3.74800E-03 7.81010E-02
 -1      1467-6.46600E-03-3.72500E-03 6.86240E-02
 -1      1468-4.17200E-03-3.63600E-03 6.31370E-02
 -1      1469-9.74700E-03-3.83500E-03 7.24140E-02
 -1      1470-1.46640E-02-3.95300E-03 7.69510E-02
 -1      1471-1.40190E-02-3.94100E-03 6.74730E-02
 -1      1472 1.51620E-02-2.61400E-03 7.03680E-02
 -1      1473 3.00270E-02-1.63200E-03 1.40896E-01
 -1      1474 2.64570E-02-1.87800E-03 1.45784E-01
 -1      1475-1.00070E-02-3.84200E-03 5.83050E-02
 -1      1476-1.38850E-02-3.93800E-03 4.66220E-02
 -1      1477-1.80100E-02-3.99400E-03 5.21970E-02
 -1      1478-2.26180E-02-4.00100E-03 4.58930E-02
 -1      1479-1.10030E-02-3.87100E-03 4.08230E-02
 -1      1480-1.56120E-02-3.96800E-03 5.68230E-02
 -1      1481-2.43450E-02-3.99700E-03 5.60940E-02
 -1      1482-1.63410E-02-3.97800E-03 6.22010E-02
 -1      1483-2.13960E-02-4.00200E-03 1.35346E-01
 -1      1484-2.70910E-02-3.98300E-03 1.34080E-01
 -1      1485-2.08510E-02-4.00200E-03 1.40645E-01
 -1      1486-3.29310E-02-3.88800E-03 1.31839E-01
 -1      1487-3.35090E-02-3.87200E-03 1.26934E-01
 -1      1488-3.23950E-02-3.90200E-03 1.37194E-01
 -1      1489-3.41780E-02-3.85000E-03 1.21115E-01
 -1      1490 2.60680E-02-1.90500E-03 1.66933E-01
 -1      1491 2.60680E-02-1.90500E-03 1.86933E-01
 -1      1492-3.54840E-02-3.80000E-03 6.81800E-02
 -1      1493-3.35400E-02-3.87100E-03 6.39220E-02
 -1      1494-3.45230E-02-3.83800E-03 7.26970E-02
 -1      1495-2.60640E-02-3.99000E-03 6.47680E-02
 -1      1496-2.94230E-02-3.95900E-03 5.98730E-02
 -1      1497-2.82260E-02-3.97300E-03 7.37530E-02
 -1      1498-3.25680E-02-3.89800E-03 7.76330E-02
 -1      1499-2.17860E-02-4.00100E-03 7.49760E-02
 -1      1500-2.37410E-02-3.99900E-03 7.00400E-02
 -1      1501-1.96240E-02-4.00100E-03 6.59910E-02
 -1      1502-3.18210E-02-3.91600E-03 5.52470E-02
 -1      1503-3.74760E-02-3.70000E-03 5.40340E-02
 -1      1504-3.24020E-02-3.90200E-03 5.02540E-02
 -1      1505-2.16810E-02-4.00100E-03 2.28982E-01
 -1      1506-2.13020E-02-4.00200E-03 2.23914E-01
 -1      1507-2.24930E-02-4.00100E-03 2.34733E-01
 -1      1508-2.72980E-02-3.98100E-03 2.32557E-01
 -1      1509-2.12410E-02-4.00200E-03 2.40544E-01
 -1      1510-2.69340E-02-3.98400E-03 2.22390E-01
 -1      1511-3.21090E-02-3.90900E-03 2.32262E-01
 -1      1512-3.12960E-02-3.92700E-03 2.26511E-01
 -1      1513-3.17450E-02-3.91800E-03 2.22096E-01
 -1      1514 2.60680E-02-1.90500E-03 2.06933E-01
 -1      1515 2.71020E-02-1.83400E-03 2.29800E-01
 -1      1516-2.91380E-02-3.96200E-03 8.36790E-02
 -1      1517-3.54350E-02-3.80200E-03 8.26230E-02
 -1      1518-3.69960E-02-3.72700E-03 8.72600E-02
 -1      1519 2.48050E-02-1.99000E-03 2.34804E-01
 -1      1520 2.32550E-02-2.09400E-03 2.41868E-01
 -1      1521 2.56900E-02-1.93000E-03 2.48298E-01
 -1      1522 2.97010E-02-1.65500E-03 2.63108E-01
 -1      1523 2.85340E-02-1.73600E-03 2.56355E-01
 -1      1524 1.91730E-02-2.36100E-03 2.53008E-01
 -1      1525-3.26050E-02-3.89700E-03 2.11787E-01
 -1      1526-3.27520E-02-3.89300E-03 2.06944E-01
 -1      1527-3.27990E-02-3.89200E-03 2.16466E-01
 -1      1528-3.25740E-02-3.89800E-03 2.02414E-01
 -1      1529-2.63950E-02-3.98800E-03 2.39040E-02
 -1      1530-1.86940E-02-3.99900E-03 2.31100E-02
 -1      1531-2.07430E-02-4.00200E-03 2.89040E-02
 -1      1532-3.27610E-02-3.89300E-03 2.59070E-02
 -1      1533-3.07130E-02-3.93800E-03 2.01120E-02
 -1      1534-1.57680E-02-3.97000E-03 3.42140E-02
 -1      1535-2.34690E-02-3.99900E-03 3.50080E-02
 -1      1536-2.50600E-02-3.99500E-03 4.08350E-02
 -1      1537-3.00350E-02-3.95000E-03 3.55260E-02
 -1      1538-3.47830E-02-3.82800E-03 3.12110E-02
 -1      1539-3.63740E-02-3.75900E-03 3.70380E-02
 -1      1540-3.90960E-02-3.59200E-03 2.74190E-02
 -1      1541-1.07990E-02-3.86500E-03 2.17650E-02
 -1      1542-1.64500E-02-3.97900E-03 1.67650E-02
 -1      1543-2.68070E-02-3.98500E-03 1.33990E-02
 -1      1544-3.15150E-02-3.92300E-03 1.59100E-02
 -1      1545-2.16630E-02-4.00100E-03 1.36050E-02
 -1      1546-8.27800E-03-3.78800E-03 3.47190E-02
 -1      1547-6.13400E-03-3.71300E-03 2.72050E-02
 -1      1548-1.37200E-03-3.51600E-03 3.38140E-02
 -1      1549-3.89100E-03-3.62500E-03 2.08600E-02
 -1      1550-2.07380E-02-4.00200E-03 1.90220E-01
 -1      1551-2.11810E-02-4.00200E-03 1.85115E-01
 -1      1552-2.66380E-02-3.98600E-03 1.94273E-01
 -1      1553-2.66380E-02-3.98600E-03 1.84273E-01
 -1      1554-2.11830E-02-4.00200E-03 1.80400E-01
 -1      1555-3.24250E-02-3.90200E-03 1.91972E-01
 -1      1556-3.25330E-02-3.89900E-03 1.87169E-01
 -1      1557-3.24260E-02-3.90200E-03 1.97257E-01
 -1      1558-3.25350E-02-3.89900E-03 1.82453E-01
 -1      1559-2.07400E-02-4.00200E-03 1.75504E-01
 -1      1560-3.48050E-02-3.82700E-03 9.74120E-02
 -1      1561-3.03670E-02-3.94400E-03 9.35910E-02
 -1      1562-3.64420E-02-3.75600E-03 9.24900E-02
 -1      1563-2.65930E-02-3.98700E-03 8.95120E-02
 -1      1564-3.46960E-02-3.83100E-03 1.16695E-01
 -1      1565-2.91850E-02-3.96200E-03 4.64100E-02
 -1      1566-3.48430E-02-3.82600E-03 4.51970E-02
 -1      1567-2.07380E-02-4.00200E-03 1.70219E-01
 -1      1568-2.11810E-02-4.00200E-03 1.65115E-01
 -1      1569-2.66380E-02-3.98600E-03 1.74273E-01
 -1      1570-2.66380E-02-3.98600E-03 1.64273E-01
 -1      1571-2.11830E-02-4.00200E-03 1.60400E-01
 -1      1572-3.24250E-02-3.90200E-03 1.71972E-01
 -1      1573-3.25330E-02-3.89900E-03 1.67169E-01
 -1      1574-3.24270E-02-3.90200E-03 1.77257E-01
 -1      1575-3.25350E-02-3.89900E-03 1.62453E-01
 -1      1576-2.07400E-02-4.00200E-03 1.55504E-01
 -1      1577-2.07380E-02-4.00200E-03 1.50219E-01
 -1      1578-2.08910E-02-4.00200E-03 1.45421E-01
 -1      1579-2.66380E-02-3.98600E-03 1.54273E-01
 -1      1580-2.65950E-02-3.98700E-03 1.44212E-01
 -1      1581-3.24250E-02-3.90200E-03 1.51972E-01
 -1      1582-3.25370E-02-3.89900E-03 1.47163E-01
 -1      1583-3.24270E-02-3.90200E-03 1.57257E-01
 -1      1584-3.24960E-02-3.90000E-03 1.42386E-01
 -1      1585 6.97900E-03-3.09400E-03 3.14250E-02
 -1      1586 1.41370E-02-2.67600E-03 3.00440E-02
 -1      1587 2.28760E-02-2.11900E-03 2.74540E-02
 -1      1588 7.93200E-03-3.04100E-03 2.49190E-02
 -1      1589 2.15930E-02-2.20300E-03 1.78400E-02
 -1      1590 1.09390E-02-2.86800E-03 1.77300E-02
 -1      1591 3.78000E-03-3.26500E-03 1.91120E-02
 -1      1592-2.37250E-02-3.99900E-03 8.45210E-02
 -1      1593-1.91490E-02-4.00000E-03 8.06640E-02
 -1      1594-1.70430E-02-3.98600E-03 2.53454E-01
 -1      1595-2.09050E-02-4.00200E-03 2.58958E-01
 -1      1596-1.94290E-02-4.00100E-03 2.47330E-01
 -1      1597-2.49930E-02-3.99500E-03 2.84099E-01
 -1      1598-2.71320E-02-3.98300E-03 2.78948E-01
 -1      1599-3.73440E-02-3.70700E-03 4.22280E-02
 -1      1600-2.31370E-02-4.00000E-03 2.63158E-01
 -1      1601-2.67200E-02-3.98600E-03 2.56080E-01
 -1      1602-3.40610E-02-3.85400E-03 2.56661E-01
 -1      1603-3.18300E-02-3.91600E-03 2.52461E-01
 -1      1604-2.62990E-02-3.98800E-03 2.45094E-01
 -1      1605-2.98500E-02-3.95300E-03 2.48837E-01
 -1      1606-3.16610E-02-3.92000E-03 2.42051E-01
 -1      1607-3.71900E-02-3.71600E-03 2.49419E-01
 -1      1608-2.35350E-02-3.99900E-03 2.67847E-01
 -1      1609-2.93500E-02-3.96000E-03 2.64969E-01
 -1      1610-2.47770E-02-3.99600E-03 2.73833E-01
 -1      1611-3.35680E-02-3.87000E-03 2.65883E-01
 -1      1612-3.31700E-02-3.88200E-03 2.61193E-01
 -1      1613-3.21030E-02-3.91000E-03 2.74774E-01
 -1      1614-3.54330E-02-3.80200E-03 2.69763E-01
 -1      1615-3.71580E-02-3.71800E-03 2.20586E-01
 -1      1616-3.40130E-02-3.85600E-03 2.37836E-01
 -1      1617-3.75610E-02-3.69500E-03 2.41579E-01
 -1      1618-3.96720E-02-3.54600E-03 2.45089E-01
 -1      1619 8.99000E-04 1.53200E-03 0.00000E+00
 -1      1620-1.82320E-02 1.77500E-03 0.00000E+00
 -1      1621-3.41900E-02 1.73300E-03 0.00000E+00
 -1      1622-4.13560E-02 9.77000E-04 0.00000E+00
 -1      1623 4.02350E-02-7.38000E-04 0.00000E+00
 -1      1624 3.04070E-02 9.81000E-04 0.00000E+00
 -1      1625-3.11860E-02 4.71400E-03 0.00000E+00
 -1      1626-3.80060E-02 3.56200E-03 0.00000E+00
 -1      1627-3.75400E-02-8.51000E-04 0.00000E+00
 -1      1628-1.37790E-02 4.75400E-03 0.00000E+00
 -1      1629-2.32070E-02 4.73500E-03 0.00000E+00
 -1      1630-2.27120E-02-1.10400E-03 0.00000E+00
 -1      1631-2.76880E-02 1.85600E-03 0.00000E+00
 -1      1632-3.06910E-02-1.12400E-03 0.00000E+00
 -1      1633 5.73100E-03 3.83900E-03 0.00000E+00
 -1      1634-4.21400E-03 4.63300E-03 0.00000E+00
 -1      1635-3.87200E-03-1.13400E-03 0.00000E+00
 -1      1636-8.98500E-03 1.96600E-03 0.00000E+00
 -1      1637-1.34370E-02-1.01300E-03 0.00000E+00
 -1      1638 2.06350E-02 3.47000E-04 0.00000E+00
 -1      1639 1.07420E-02 1.63800E-03 0.00000E+00
 -1      1640 5.90900E-03-6.68000E-04 0.00000E+00
 -1      1641 8.99000E-04 1.53200E-03 3.00000E-01
 -1      1642-1.82320E-02 1.77500E-03 3.00000E-01
 -1      1643-3.41900E-02 1.73300E-03 3.00000E-01
 -1      1644-4.13560E-02 9.77000E-04 3.00000E-01
 -1      1645 4.02350E-02-7.38000E-04 3.00000E-01
 -1      1646 3.04070E-02 9.81000E-04 3.00000E-01
 -1      1647-3.80060E-02 3.56200E-03 3.00000E-01
 -1      1648-3.11860E-02 4.71400E-03 3.00000E-01
 -1      1649-3.75400E-02-8.51000E-04 3.00000E-01
 -1      1650-2.32070E-02 4.73500E-03 3.00000E-01
 -1      1651-1.37790E-02 4.75400E-03 3.00000E-01
 -1      1652-2.76880E-02 1.85600E-03 3.00000E-01
 -1      1653-2.27120E-02-1.10400E-03 3.00000E-01
 -1      1654-3.06910E-02-1.12400E-03 3.00000E-01
 -1      1655-4.21400E-03 4.63300E-03 3.00000E-01
 -1      1656 5.73100E-03 3.83900E-03 3.00000E-01
 -1      1657-8.98500E-03 1.96600E-03 3.00000E-01
 -1      1658-3.87200E-03-1.13400E-03 3.00000E-01
 -1      1659-1.34370E-02-1.01300E-03 3.00000E-01
 -1      1660 1.07420E-02 1.63800E-03 3.00000E-01
 -1      1661 2.06350E-02 3.47000E-04 3.00000E-01
 -1      1662 5.90900E-03-6.68000E-04 3.00000E-01
 -1      1663 4.37300E-02-4.87000E-04 1.24829E-01
 -1      1664 3.47260E-02 1.10500E-03 1.22291E-01
 -1      1665 3.47260E-02 1.10500E-03 1.32291E-01
 -1      1666 4.37300E-02-4.87000E-04 1.34829E-01
 -1      1667 3.37760E-02 1.03500E-03 1.40701E-01
 -1      1668 3.37760E-02 1.03500E-03 1.50701E-01
 -1      1669 4.27790E-02-5.56000E-04 1.43239E-01
 -1      1670 4.36950E-02-4.89000E-04 2.62576E-01
 -1      1671 3.88670E-02 4.12000E-04 2.68412E-01
 -1      1672 3.33770E-02 1.30400E-03 2.64893E-01
 -1      1673 3.31780E-02 1.03900E-03 8.17190E-02
 -1      1674 3.33810E-02 1.00800E-03 9.18450E-02
 -1      1675 4.23900E-02-5.85000E-04 8.43880E-02
 -1      1676 3.33870E-02 1.00700E-03 1.61851E-01
 -1      1677 4.23900E-02-5.85000E-04 1.64388E-01
 -1      1678 3.33870E-02 1.00700E-03 1.71851E-01
 -1      1679 3.33870E-02 1.00700E-03 1.81851E-01
 -1      1680 4.23900E-02-5.85000E-04 1.84388E-01
 -1      1681 3.33870E-02 1.00700E-03 1.91851E-01
 -1      1682 4.51720E-02 9.01000E-04 2.65836E-01
 -1      1683 4.51720E-02 9.01000E-04 2.75836E-01
 -1      1684 4.23900E-02-5.85000E-04 1.94388E-01
 -1      1685-1.15900E-03-1.03200E-03 2.93431E-01
 -1      1686 4.27790E-02-5.56000E-04 1.53239E-01
 -1      1687 3.84400E-03-7.86000E-04 5.96200E-03
 -1      1688-2.30070E-02 1.81500E-03 1.01057E-01
 -1      1689-2.73450E-02 1.81000E-03 1.04259E-01
 -1      1690-2.89450E-02 1.82300E-03 9.98560E-02
 -1      1691 4.23900E-02-5.85000E-04 9.43880E-02
 -1      1692 4.23900E-02-5.85000E-04 1.74388E-01
 -1      1693-2.15410E-02 1.90600E-03 1.27242E-01
 -1      1694-2.72360E-02 1.90500E-03 1.25977E-01
 -1      1695-2.20800E-02 1.90000E-03 1.22131E-01
 -1      1696-2.37500E-02-1.09300E-03 4.34400E-03
 -1      1697-1.86060E-02-1.11200E-03 4.55000E-03
 -1      1698-2.29610E-02 4.75300E-03 6.75300E-03
 -1      1699-2.33360E-02 1.86600E-03 1.13040E-02
 -1      1700-2.84800E-02 1.88500E-03 1.10980E-02
 -1      1701-2.88860E-02 1.89600E-03 2.87449E-01
 -1      1702-2.23220E-02 1.87600E-03 2.88465E-01
 -1      1703-2.29120E-02 4.75700E-03 2.92354E-01
 -1      1704-1.76410E-02-1.10600E-03 2.96112E-01
 -1      1705-2.42060E-02-1.08600E-03 2.95095E-01
 -1      1706-3.13740E-02 1.53800E-03 9.54350E-02
 -1      1707-3.48850E-02 8.21000E-04 1.00766E-01
 -1      1708-3.74450E-02 1.80300E-03 9.43330E-02
 -1      1709-4.09560E-02 1.08600E-03 9.96650E-02
 -1      1710-2.69210E-02 1.90300E-03 2.05923E-01
 -1      1711-2.17040E-02 1.90400E-03 2.07505E-01
 -1      1712-2.05920E-02 1.92100E-03 2.02971E-01
 -1      1713-2.37230E-02 2.00900E-03 2.11207E-01
 -1      1714-1.85060E-02 2.01000E-03 2.12788E-01
 -1      1715-1.18330E-02 2.16400E-03 2.24709E-01
 -1      1716-1.73870E-02 2.01100E-03 2.23092E-01
 -1      1717-1.77660E-02 2.00600E-03 2.28160E-01
 -1      1718-1.50070E-02 1.96500E-03 1.28099E-01
 -1      1719-1.55460E-02 1.95900E-03 1.22988E-01
 -1      1720 4.23900E-02-5.85000E-04 2.24388E-01
 -1      1721 3.40800E-02 8.98000E-04 2.30593E-01
 -1      1722 3.14300E-02 1.30400E-03 2.24105E-01
 -1      1723 4.02400E-03 4.01600E-03 5.65200E-03
 -1      1724-2.67400E-02 1.90200E-03 1.66108E-01
 -1      1725-2.02050E-02 1.96000E-03 1.66965E-01
 -1      1726-1.47510E-02 1.96800E-03 1.63092E-01
 -1      1727-2.12850E-02 1.91000E-03 1.62235E-01
 -1      1728-2.78230E-02 1.81300E-03 2.24002E-01
 -1      1729-2.25710E-02 2.00500E-03 2.25983E-01
 -1      1730-2.30200E-02 2.00800E-03 2.21568E-01
 -1      1731-2.82720E-02 1.81600E-03 2.19587E-01
 -1      1732-2.63720E-02 1.91200E-03 8.12610E-02
 -1      1733-1.92510E-02 1.95800E-03 8.32350E-02
 -1      1734-1.47520E-02 2.04400E-03 7.94240E-02
 -1      1735-2.18730E-02 1.99800E-03 7.74500E-02
 -1      1736-1.77180E-02 4.87800E-03 6.46600E-03
 -1      1737-6.72100E-03 2.00900E-03 2.30285E-01
 -1      1738-1.26540E-02 1.85200E-03 2.33736E-01
 -1      1739-7.29900E-03 1.98700E-03 2.35733E-01
 -1      1740-1.96130E-02 1.99300E-03 1.32706E-01
 -1      1741-2.53080E-02 1.99200E-03 1.31441E-01
 -1      1742-1.81090E-02 1.92200E-03 2.03020E-02
 -1      1743-1.24580E-02 1.96100E-03 2.53010E-02
 -1      1744-1.81870E-02 2.01600E-03 2.54350E-02
 -1      1745-2.38390E-02 1.97800E-03 2.04350E-02
 -1      1746-1.80350E-02 2.00800E-03 1.03300E-01
 -1      1747-2.23720E-02 2.00400E-03 1.06503E-01
 -1      1748-3.62210E-02 1.70200E-03 1.68852E-01
 -1      1749-3.26350E-02 2.07500E-03 1.64289E-01
 -1      1750-3.03270E-02 1.52900E-03 1.70672E-01
 -1      1751-2.58880E-02 1.99100E-03 2.62300E-02
 -1      1752-2.97350E-02 1.72900E-03 2.96810E-02
 -1      1753-3.12500E-02 1.53400E-03 2.49040E-02
 -1      1754-4.36160E-02 1.31600E-03 2.97456E-01
 -1      1755-2.78580E-02 1.81300E-03 1.40317E-01
 -1      1756-3.37970E-02 1.98700E-03 1.43268E-01
 -1      1757-3.36960E-02 1.98000E-03 1.38076E-01
 -1      1758-1.20000E-02 1.97400E-03 8.40480E-02
 -1      1759-3.97360E-02 9.85000E-04 1.44178E-01
 -1      1760-3.96360E-02 9.79000E-04 1.38986E-01
 -1      1761-2.48120E-02 1.98800E-03 1.71572E-01
 -1      1762-3.97320E-02 9.85000E-04 1.84184E-01
 -1      1763-3.37930E-02 1.98700E-03 1.83274E-01
 -1      1764-3.36850E-02 1.98000E-03 1.78078E-01
 -1      1765-3.96250E-02 9.78000E-04 1.78987E-01
 -1      1766-1.18470E-02 2.17600E-03 1.05705E-01
 -1      1767-1.76860E-02 2.01200E-03 1.08318E-01
 -1      1768-3.34180E-02 1.04600E-03 1.26014E-01
 -1      1769-3.40880E-02 1.05300E-03 1.20196E-01
 -1      1770-2.79050E-02 1.91200E-03 1.20158E-01
 -1      1771-3.92170E-02 9.53000E-04 1.04285E-01
 -1      1772-3.32780E-02 1.95400E-03 1.03376E-01
 -1      1773-3.92970E-02 1.25000E-03 1.24222E-01
 -1      1774 3.81200E-03 4.03700E-03 2.92437E-01
 -1      1775-2.38270E-02 1.90500E-03 8.70930E-02
 -1      1776-1.80930E-02 1.99100E-03 1.10160E-02
 -1      1777-1.51690E-02 1.96300E-03 2.08361E-01
 -1      1778-1.40580E-02 1.97900E-03 2.03827E-01
 -1      1779-3.34660E-02 1.00500E-03 2.19532E-01
 -1      1780-3.36850E-02 1.98000E-03 2.18078E-01
 -1      1781-3.88790E-02 1.16800E-03 2.18022E-01
 -1      1782-2.90960E-02 1.86000E-03 2.71635E-01
 -1      1783-2.41790E-02 2.02100E-03 2.72627E-01
 -1      1784-1.79660E-02 2.00400E-03 2.70816E-01
 -1      1785-2.28830E-02 1.84300E-03 2.69824E-01
 -1      1786-2.66310E-02 1.99700E-03 2.66472E-01
 -1      1787-2.04180E-02 1.97900E-03 2.64661E-01
 -1      1788-3.07500E-02 1.64200E-03 1.14402E-01
 -1      1789-2.90320E-02 1.62800E-03 1.09518E-01
 -1      1790-2.24130E-02 2.00400E-03 1.11448E-01
 -1      1791-2.41320E-02 2.01800E-03 1.16333E-01
 -1      1792-1.43080E-02 1.97500E-03 1.68196E-01
 -1      1793-3.61250E-02 1.69600E-03 1.33655E-01
 -1      1794-3.61140E-02 1.69500E-03 1.73656E-01
 -1      1795-3.88170E-02 1.21500E-03 1.64326E-01
 -1      1796 2.76000E-04 1.41400E-03 2.34275E-01
 -1      1797 8.53000E-04 1.43600E-03 2.28827E-01
 -1      1798-1.71810E-02 2.02000E-03 1.43770E-01
 -1      1799-1.17300E-02 1.86100E-03 1.40263E-01
 -1      1800-1.15760E-02 1.86400E-03 1.45061E-01
 -1      1801-1.70280E-02 2.02200E-03 1.48568E-01
 -1      1802-3.08220E-02 1.53300E-03 1.30541E-01
 -1      1803-2.39160E-02 2.01000E-03 2.15885E-01
 -1      1804-1.82840E-02 2.01300E-03 2.17409E-01
 -1      1805-2.92010E-02 1.52100E-03 1.91090E-02
 -1      1806-2.79000E-02 1.81300E-03 1.80379E-01
 -1      1807-1.65760E-02 1.92200E-03 8.79060E-02
 -1      1808-3.02860E-02 1.52900E-03 1.35895E-01
 -1      1809-2.78990E-02 1.81300E-03 1.45094E-01
 -1      1810-2.07750E-02 1.99200E-03 1.55210E-02
 -1      1811-3.05070E-02 1.53000E-03 2.10487E-01
 -1      1812-3.62610E-02 1.70500E-03 2.08813E-01
 -1      1813-3.26740E-02 2.07800E-03 2.04249E-01
 -1      1814-3.59440E-02 9.47000E-04 3.84080E-02
 -1      1815-4.06870E-02 1.20100E-03 3.40930E-02
 -1      1816-3.43530E-02 9.22000E-04 3.25810E-02
 -1      1817-3.29250E-02 1.04200E-03 1.61431E-01
 -1      1818-2.67420E-02 1.90200E-03 1.61393E-01
 -1      1819-2.95870E-02 1.63100E-03 1.55637E-01
 -1      1820-4.00110E-02 1.50500E-03 8.42430E-02
 -1      1821-4.25400E-02 8.38000E-04 8.93650E-02
 -1      1822-4.34240E-02 5.20000E-04 8.60840E-02
 -1      1823-2.91810E-02 1.87400E-03 2.95095E-01
 -1      1824-7.24000E-03 1.87200E-03 7.55300E-03
 -1      1825-7.19600E-03 1.87300E-03 1.52630E-02
 -1      1826-3.82800E-03-1.13300E-03 7.71000E-03
 -1      1827-2.46900E-03 4.53800E-03 7.55300E-03
 -1      1828-3.29220E-02 1.04300E-03 2.01427E-01
 -1      1829-2.67420E-02 1.90200E-03 2.01393E-01
 -1      1830-2.95870E-02 1.63100E-03 1.95637E-01
 -1      1831-3.07010E-02 1.53200E-03 2.15166E-01
 -1      1832-3.61140E-02 1.69500E-03 2.13656E-01
 -1      1833 5.73900E-03 1.66400E-03 2.32934E-01
 -1      1834-3.13260E-02 1.75400E-03 3.55080E-02
 -1      1835 3.31530E-02 9.90000E-04 1.13857E-01
 -1      1836 4.21570E-02-6.01000E-04 1.16394E-01
 -1      1837 4.21570E-02-6.01000E-04 1.06394E-01
 -1      1838-3.87090E-02 1.20800E-03 1.59130E-01
 -1      1839-3.53720E-02 1.79700E-03 1.53336E-01
 -1      1840-2.38320E-02 2.01400E-03 2.37590E-01
 -1      1841-2.91780E-02 1.76800E-03 2.34665E-01
 -1      1842-2.83660E-02 1.76200E-03 2.28913E-01
 -1      1843-2.30200E-02 2.00700E-03 2.31839E-01
 -1      1844-3.40510E-02 1.85300E-03 2.58890E-02
 -1      1845-3.60680E-02 2.00800E-03 3.11940E-02
 -1      1846-4.10580E-02 1.10400E-03 2.93640E-02
 -1      1847-3.90400E-02 9.49000E-04 2.40600E-02
 -1      1848-3.87060E-02 1.20900E-03 1.99126E-01
 -1      1849-3.53720E-02 1.79700E-03 1.93336E-01
 -1      1850-3.88540E-02 1.21900E-03 2.04283E-01
 -1      1851-3.09040E-02 1.79800E-03 4.07380E-02
 -1      1852-1.82150E-02 2.00900E-03 2.34015E-01
 -1      1853-2.84450E-02 1.92500E-03 6.48290E-02
 -1      1854-2.43270E-02 1.89800E-03 6.07800E-02
 -1      1855-2.52800E-02 1.82900E-03 6.65460E-02
 -1      1856-2.93980E-02 1.85600E-03 7.05940E-02
 -1      1857-1.77280E-02 2.01200E-03 1.13263E-01
 -1      1858-1.89140E-02 2.00300E-03 1.72803E-01
 -1      1859-2.29580E-02 1.83600E-03 7.18180E-02
 -1      1860-3.67010E-02 1.73700E-03 1.28749E-01
 -1      1861-2.52000E-02 2.01100E-03 9.66750E-02
 -1      1862-1.92620E-02 2.00300E-03 9.78750E-02
 -1      1863-2.95850E-02 1.63100E-03 1.90352E-01
 -1      1864-2.78980E-02 1.81300E-03 1.85094E-01
 -1      1865-3.54800E-02 1.80400E-03 1.88532E-01
 -1      1866-3.75550E-02 5.41000E-04 9.07750E-02
 -1      1867-4.19890E-02 7.78000E-04 9.45950E-02
 -1      1868-2.87260E-02 1.86700E-03 4.34400E-03
 -1      1869-4.34230E-02 9.20000E-04 2.26366E-01
 -1      1870-3.96870E-02 5.83000E-04 2.27920E-01
 -1      1871-2.60180E-02 1.86700E-03 1.58080E-02
 -1      1872-3.16620E-02 1.53900E-03 1.43980E-02
 -1      1873-2.95850E-02 1.63100E-03 1.50352E-01
 -1      1874-3.54840E-02 1.80500E-03 1.48527E-01
 -1      1875-1.54010E-02 1.96000E-03 2.89756E-01
 -1      1876-1.59920E-02 4.84000E-03 2.93645E-01
 -1      1877-1.02140E-02 2.02200E-03 1.89570E-02
 -1      1878-3.78270E-02 1.10900E-03 2.23652E-01
 -1      1879-3.26330E-02 1.92100E-03 2.23708E-01
 -1      1880-1.83070E-02 2.00600E-03 1.18306E-01
 -1      1881-2.20050E-02 1.90500E-03 6.60530E-02
 -1      1882-2.62330E-02 1.99100E-03 2.61783E-01
 -1      1883-2.40010E-02 1.97500E-03 2.57583E-01
 -1      1884-3.24240E-02 1.46100E-03 2.66342E-01
 -1      1885-3.55550E-02 7.84000E-04 2.70319E-01
 -1      1886-1.09770E-02 1.75800E-03 1.00118E-01
 -1      1887-4.78900E-03 1.92500E-03 1.02523E-01
 -1      1888-1.21550E-02 2.01800E-03 6.53750E-02
 -1      1889-7.88500E-03 2.17400E-03 7.03160E-02
 -1      1890 8.02000E-04 1.63200E-03 7.01070E-02
 -1      1891-3.46800E-03 1.47600E-03 6.51660E-02
 -1      1892-3.30110E-02 1.56600E-03 9.05130E-02
 -1      1893-3.79960E-02 1.86300E-03 8.91030E-02
 -1      1894-2.93130E-02 1.77300E-03 3.49110E-02
 -1      1895-2.43370E-02 1.76000E-03 4.02210E-02
 -1      1896 3.31470E-02 9.91000E-04 1.03851E-01
 -1      1897-1.20190E-02 1.85700E-03 1.79956E-01
 -1      1898-1.74710E-02 2.01500E-03 1.83464E-01
 -1      1899-1.70280E-02 2.02200E-03 1.88568E-01
 -1      1900-1.15760E-02 1.86400E-03 1.85061E-01
 -1      1901-2.29690E-02 2.00700E-03 1.97568E-01
 -1      1902-1.68190E-02 2.02700E-03 1.99145E-01
 -1      1903-4.16530E-02 1.31800E-03 3.92840E-02
 -1      1904-4.20310E-02 1.21900E-03 4.39270E-02
 -1      1905-3.63230E-02 8.48000E-04 4.30510E-02
 -1      1906-3.95380E-02 9.76000E-04 4.68950E-02
 -1      1907-3.18480E-02 1.69300E-03 4.64060E-02
 -1      1908-3.50630E-02 1.82100E-03 5.02510E-02
 -1      1909-3.03290E-02 1.52900E-03 1.75957E-01
 -1      1910 4.76000E-04 2.22000E-03 1.35150E-02
 -1      1911-3.49640E-02 1.77200E-03 1.08634E-01
 -1      1912-1.41540E-02 1.86700E-03 4.55000E-03
 -1      1913-2.29670E-02 2.00700E-03 1.92283E-01
 -1      1914-1.94520E-02 1.96400E-03 2.52012E-01
 -1      1915-1.58690E-02 1.96800E-03 2.59090E-01
 -1      1916-3.91640E-02 1.36100E-03 2.37367E-01
 -1      1917-3.50770E-02 1.99200E-03 2.34193E-01
 -1      1918-3.32650E-02 1.13700E-03 2.37840E-01
 -1      1919-9.24100E-03 2.12400E-03 1.29389E-01
 -1      1920-1.22750E-02 1.85300E-03 1.34964E-01
 -1      1921-6.50900E-03 2.01200E-03 1.36254E-01
 -1      1922-2.29670E-02 2.00700E-03 1.52283E-01
 -1      1923-2.29690E-02 2.00700E-03 1.57568E-01
 -1      1924-4.18670E-02 3.73000E-04 8.14480E-02
 -1      1925-1.14640E-02 1.81300E-03 2.20398E-01
 -1      1926-1.16870E-02 1.81000E-03 2.15777E-01
 -1      1927-4.17650E-02 1.77700E-03 2.93401E-01
 -1      1928-1.73890E-02 1.99800E-03 7.37370E-02
 -1      1929-1.10000E-02 1.74300E-03 7.42430E-02
 -1      1930-8.36300E-03 1.78800E-03 7.99310E-02
 -1      1931-2.68370E-02 2.03900E-03 9.17530E-02
 -1      1932-1.28800E-02 2.09200E-03 1.41760E-02
 -1      1933-1.94400E-03 1.77800E-03 3.47120E-02
 -1      1934-6.70800E-03 1.62300E-03 2.81020E-02
 -1      1935-1.54150E-02 2.03400E-03 3.00980E-02
 -1      1936-1.06520E-02 2.19000E-03 3.67070E-02
 -1      1937-1.90670E-02 2.00100E-03 1.38005E-01
 -1      1938-2.78230E-02 1.88400E-03 2.40785E-01
 -1      1939-2.60120E-02 1.87300E-03 2.47570E-01
 -1      1940-2.09530E-02 1.89800E-03 2.43020E-01
 -1      1941-1.14020E-02 1.87100E-03 2.39547E-01
 -1      1942-1.43940E-02 1.98800E-03 2.47462E-01
 -1      1943-7.67100E-03 2.21400E-03 2.48434E-01
 -1      1944-4.67800E-03 2.09700E-03 2.40519E-01
 -1      1945-3.31760E-02 1.86900E-03 2.28619E-01
 -1      1946-3.63670E-02 1.70800E-03 1.69090E-02
 -1      1947-5.03200E-03 2.07500E-03 1.41559E-01
 -1      1948-3.64760E-02 1.88400E-03 1.14009E-01
 -1      1949-3.98140E-02 1.29500E-03 1.19803E-01
 -1      1950-3.55660E-02 1.65800E-03 2.11110E-02
 -1      1951-7.04500E-03 1.76100E-03 6.00560E-02
 -1      1952-1.43870E-02 2.06400E-03 5.85870E-02
 -1      1953-3.72630E-02 1.23800E-03 2.31794E-01
 -1      1954-3.20260E-02 1.45500E-03 2.61652E-01
 -1      1955-3.84540E-02 1.35900E-03 7.96070E-02
 -1      1956-2.53300E-03 2.06400E-03 2.07030E-02
 -1      1957-5.55100E-03 2.21300E-03 2.43970E-02
 -1      1958-5.70200E-03 1.98000E-03 1.10406E-01
 -1      1959-1.15420E-02 1.81600E-03 1.13019E-01
 -1      1960 2.93700E-03 1.22100E-03 2.21610E-01
 -1      1961 7.82200E-03 1.44900E-03 2.25716E-01
 -1      1962-3.36750E-02 1.23300E-03 2.74032E-01
 -1      1963-3.56580E-02 8.18000E-04 6.99870E-02
 -1      1964-4.09560E-02 1.06900E-03 6.93500E-02
 -1      1965-3.85310E-02 1.61300E-03 6.44190E-02
 -1      1966-3.32330E-02 1.36200E-03 6.50550E-02
 -1      1967 9.80700E-03 1.55800E-03 2.18609E-01
 -1      1968-1.54370E-02 1.95600E-03 6.91650E-02
 -1      1969-1.77600E-02 1.94900E-03 6.38930E-02
 -1      1970 3.09400E-03 1.74000E-03 6.46200E-02
 -1      1971-2.41250E-02 1.83600E-03 2.75810E-01
 -1      1972-1.92080E-02 1.99700E-03 2.76802E-01
 -1      1973-4.90100E-03 1.84400E-03 2.72879E-01
 -1      1974-1.23960E-02 2.14100E-03 2.72758E-01
 -1      1975-1.17130E-02 1.70000E-03 2.76923E-01
 -1      1976-2.47710E-02 1.98800E-03 1.36795E-01
 -1      1977-2.31160E-02 2.00900E-03 3.08930E-02
 -1      1978-3.41800E-03 1.90300E-03 2.81349E-01
 -1      1979-1.75120E-02 2.01500E-03 1.58410E-01
 -1      1980 2.27780E-02 4.30000E-04 2.85444E-01
 -1      1981 1.94690E-02 9.14000E-04 2.79725E-01
 -1      1982 1.07510E-02 1.95200E-03 2.84573E-01
 -1      1983 4.09970E-02 1.59200E-03 1.97463E-01
 -1      1984 3.33870E-02 1.00700E-03 2.01851E-01
 -1      1985 2.96230E-02 7.42000E-04 1.96041E-01
 -1      1986 4.09970E-02 1.59200E-03 1.77463E-01
 -1      1987 2.96230E-02 7.42000E-04 1.76041E-01
 -1      1988 2.96230E-02 7.42000E-04 1.56041E-01
 -1      1989 4.09970E-02 1.59200E-03 1.57463E-01
 -1      1990-1.70690E-02 2.02200E-03 1.93514E-01
 -1      1991-4.16100E-02 8.05000E-04 1.14769E-01
 -1      1992-1.70690E-02 2.02200E-03 1.53514E-01
 -1      1993-1.97960E-02 2.00000E-03 4.27210E-02
 -1      1994-2.63630E-02 2.03800E-03 4.32380E-02
 -1      1995-4.15230E-02 1.56100E-03 2.45551E-01
 -1      1996-1.07340E-02 2.06900E-03 2.09680E-01
 -1      1997-6.30900E-03 2.25400E-03 2.04450E-01
 -1      1998-1.45260E-02 1.92400E-03 2.66231E-01
 -1      1999-2.14250E-02 1.99400E-03 9.25950E-02
 -1      2000-3.93540E-02 1.50300E-03 2.74136E-01
 -1      2001-4.12350E-02 1.05400E-03 2.70423E-01
 -1      2002-1.81410E-02 1.99600E-03 3.62020E-02
 -1      2003-6.68000E-04 2.09300E-03 8.12030E-02
 -1      2004-4.30400E-03 2.27900E-03 8.53200E-02
 -1      2005-5.91100E-03 1.96600E-03 2.22014E-01
 -1      2006-1.44950E-02 2.11700E-03 9.39270E-02
 -1      2007-1.20090E-02 2.04700E-03 2.53586E-01
 -1      2008-4.25500E-02 1.29900E-03 4.93310E-02
 -1      2009-1.99920E-02 1.99500E-03 5.71050E-02
 -1      2010-3.37380E-02 2.02500E-03 7.44750E-02
 -1      2011-2.74420E-02 1.83600E-03 7.55310E-02
 -1      2012-3.21580E-02 1.16900E-03 8.06630E-02
 -1      2013 4.23900E-02-5.85000E-04 2.34388E-01
 -1      2014-4.34210E-02 1.04300E-03 5.40050E-02
 -1      2015-3.17290E-02-1.11400E-03 4.34400E-03
 -1      2016-3.64340E-02-9.44000E-04 6.85500E-03
 -1      2017-4.04610E-02 4.72000E-04 6.14090E-02
 -1      2018-4.40520E-02 8.30000E-04 5.88510E-02
 -1      2019-3.98300E-02 6.86000E-04 5.65620E-02
 -1      2020-4.83000E-04 2.02400E-03 5.95090E-02
 -1      2021-2.28850E-02 2.00700E-03 1.42560E-01
 -1      2022-2.29260E-02 2.00700E-03 1.47337E-01
 -1      2023-3.18020E-02 2.03300E-03 5.99340E-02
 -1      2024-2.29260E-02 2.00700E-03 1.87337E-01
 -1      2025 3.40200E-03 1.78000E-03 8.59580E-02
 -1      2026-3.81040E-02 1.73100E-03 2.66446E-01
 -1      2027-1.69630E-02 2.02700E-03 2.39826E-01
 -1      2028 1.26710E-02 1.75500E-03 2.92136E-01
 -1      2029-5.03200E-03 2.07500E-03 1.81559E-01
 -1      2030-2.92390E-02 1.95000E-03 8.62510E-02
 -1      2031-3.65900E-02 1.47000E-03 6.01600E-02
 -1      2032-6.21000E-03 1.87200E-03 9.61700E-02
 -1      2033-1.08830E-02 1.82600E-03 1.93270E-01
 -1      2034-1.08830E-02 1.82600E-03 1.53270E-01
 -1      2035-3.44700E-03 1.96100E-03 7.53930E-02
 -1      2036-8.95600E-03 2.06100E-03 2.68174E-01
 -1      2037-3.50260E-02 1.20800E-03 8.56530E-02
 -1      2038-3.87560E-02 1.58700E-03 4.65500E-03
 -1      2039-3.54050E-02 4.17200E-03 4.65500E-03
 -1      2040-3.76490E-02 1.49400E-03 1.15090E-02
 -1      2041-6.54100E-03 2.06800E-03 4.28970E-02
 -1      2042-1.67790E-02 1.95200E-03 2.82648E-01
 -1      2043-1.15760E-02 1.86400E-03 1.75061E-01
 -1      2044-6.92000E-03 1.99600E-03 1.76294E-01
 -1      2045-9.65100E-03 2.10800E-03 1.69429E-01
 -1      2046 6.29000E-04 2.29100E-03 1.94866E-01
 -1      2047-5.20600E-03 2.00000E-03 1.95020E-01
 -1      2048-2.88400E-03 2.10500E-03 1.99524E-01
 -1      2049-1.06330E-02 1.83100E-03 1.98901E-01
 -1      2050 1.38300E-03 1.66500E-03 2.46406E-01
 -1      2051-1.93570E-02 1.99700E-03 1.77699E-01
 -1      2052-4.00980E-02 6.93000E-04 1.09393E-01
 -1      2053-4.04100E-02 7.20000E-04 5.15690E-02
 -1      2054-6.27200E-03 2.06800E-03 2.93431E-01
 -1      2055 1.75400E-03 1.47200E-03 2.85867E-01
 -1      2056-7.25200E-03 1.91600E-03 2.17096E-01
 -1      2057-4.05060E-02 7.18000E-04 1.54096E-01
 -1      2058-4.05060E-02 7.18000E-04 1.94096E-01
 -1      2059-3.60300E-02 1.29000E-03 2.79148E-01
 -1      2060-3.62430E-02 1.58500E-03 2.62566E-01
 -1      2061-1.06650E-02 2.00300E-03 2.60727E-01
 -1      2062-4.33800E-03 2.03800E-03 1.49768E-01
 -1      2063-6.22600E-03 1.95900E-03 1.54503E-01
 -1      2064-2.29280E-02 2.00700E-03 1.82622E-01
 -1      2065-3.29450E-02 1.32500E-03 8.99900E-03
 -1      2066-9.64600E-03 2.04500E-03 8.92370E-02
 -1      2067-1.21210E-02 1.81000E-03 1.18062E-01
 -1      2068 2.89600E-03 1.52300E-03 2.39061E-01
 -1      2069-2.48140E-02 1.98800E-03 1.76857E-01
 -1      2070 6.40600E-03 2.21600E-03 3.23220E-02
 -1      2071 1.99000E-04 1.87500E-03 2.71970E-02
 -1      2072-2.36990E-02 1.86900E-03 2.81357E-01
 -1      2073-2.39210E-02 2.00600E-03 4.82960E-02
 -1      2074-4.06690E-02 6.70000E-04 1.33916E-01
 -1      2075-4.06580E-02 6.69000E-04 1.73918E-01
 -1      2076-2.84630E-02 1.76600E-03 4.57950E-02
 -1      2077-4.05840E-02 6.93000E-04 2.13821E-01
 -1      2078-4.32670E-02 9.71000E-04 2.17897E-01
 -1      2079-3.21850E-02-1.10700E-03 2.95095E-01
 -1      2080-3.61550E-02 4.02300E-03 2.95945E-01
 -1      2081-3.41500E-02 1.18200E-03 2.91040E-01
 -1      2082-3.96240E-02 1.45000E-03 2.90311E-01
 -1      2083-3.76590E-02-8.39000E-04 2.94366E-01
 -1      2084-3.44830E-02 1.78700E-03 5.52440E-02
 -1      2085-1.02610E-02 2.08500E-03 1.23088E-01
 -1      2086 1.24080E-02 9.78000E-04 1.11330E-01
 -1      2087 4.69700E-03 1.82300E-03 1.11270E-01
 -1      2088 1.19730E-02 2.25900E-03 1.07522E-01
 -1      2089 1.96850E-02 1.41300E-03 1.07582E-01
 -1      2090-6.31700E-03 1.78200E-03 5.46770E-02
 -1      2091-2.00700E-03 1.43000E-03 4.88350E-02
 -1      2092 8.02800E-03 1.90200E-03 4.86100E-02
 -1      2093 3.71900E-03 2.25400E-03 5.44520E-02
 -1      2094 2.77890E-02 1.89100E-03 1.45490E-01
 -1      2095-1.36580E-02 2.08600E-03 5.32090E-02
 -1      2096-3.14510E-02 1.91700E-03 2.76751E-01
 -1      2097-3.99980E-02 9.88000E-04 7.38670E-02
 -1      2098-3.68160E-02 1.21800E-03 2.41583E-01
 -1      2099-3.13740E-02 1.96600E-03 2.44528E-01
 -1      2100-2.95500E-03 1.49800E-03 2.51559E-01
 -1      2101-4.12650E-02 1.61800E-03 2.40878E-01
 -1      2102-8.48400E-03 2.15400E-03 2.87075E-01
 -1      2103 6.21700E-03 1.87400E-03 1.89238E-01
 -1      2104 3.81000E-04 1.58300E-03 1.89392E-01
 -1      2105-4.02710E-02 6.36000E-04 2.63168E-01
 -1      2106-3.90040E-02 1.00800E-03 2.59170E-01
 -1      2107-3.95050E-02 1.43800E-03 2.95945E-01
 -1      2108 7.98000E-04 1.85300E-03 2.05939E-01
 -1      2109 8.89900E-03 2.31300E-03 2.06505E-01
 -1      2110 4.58400E-03 2.05300E-03 2.13087E-01
 -1      2111-5.01700E-03 1.67000E-03 2.58397E-01
 -1      2112-1.93900E-03 1.54600E-03 8.98750E-02
 -1      2113-3.10250E-02 1.94900E-03 2.82298E-01
 -1      2114 2.69700E-03 2.21200E-03 2.74347E-01
 -1      2115 8.74000E-04 1.53600E-03 4.30360E-02
 -1      2116 9.22500E-03 1.97300E-03 4.06470E-02
 -1      2117-6.39000E-04 1.54300E-03 1.78875E-01
 -1      2118-2.54500E-03 1.70600E-03 1.70918E-01
 -1      2119-4.12450E-02 7.12000E-04 1.29011E-01
 -1      2120-4.21320E-02 7.82000E-04 2.67048E-01
 -1      2121 7.02200E-03 1.95300E-03 1.02956E-01
 -1      2122 1.47340E-02 1.10800E-03 1.03016E-01
 -1      2123-7.76300E-03 2.18600E-03 1.64695E-01
 -1      2124-4.06180E-02 7.26000E-04 1.49286E-01
 -1      2125-4.06140E-02 7.26000E-04 1.89292E-01
 -1      2126 3.20890E-02 6.86000E-04 2.43491E-01
 -1      2127 3.17840E-02 7.35000E-04 2.35597E-01
 -1      2128 2.45340E-02 1.77300E-03 2.40659E-01
 -1      2129 9.60000E-04 2.30300E-03 2.19013E-01
 -1      2130-3.39390E-02 1.89000E-03 2.58171E-01
 -1      2131 6.29000E-04 2.29100E-03 1.54866E-01
 -1      2132 6.21700E-03 1.87400E-03 1.49238E-01
 -1      2133-6.39000E-04 1.54300E-03 1.48875E-01
 -1      2134-3.62800E-03 1.66700E-03 2.11170E-01
 -1      2135-2.13400E-03 1.72200E-03 1.30878E-01
 -1      2136 2.57200E-03 2.29500E-03 9.92930E-02
 -1      2137-4.33800E-03 2.03800E-03 1.89768E-01
 -1      2138 1.96570E-02 1.34800E-03 2.30208E-01
 -1      2139 1.30730E-02 2.09900E-03 2.32111E-01
 -1      2140 1.51560E-02 1.88400E-03 2.24893E-01
 -1      2141 1.54910E-02 1.46000E-03 2.88300E-02
 -1      2142 7.35800E-03 2.27400E-03 2.58160E-02
 -1      2143 8.33200E-03 1.06100E-03 3.02110E-02
 -1      2144-3.39000E-04 1.58300E-03 1.06186E-01
 -1      2145-3.54710E-02 8.69000E-04 2.87340E-01
 -1      2146-2.97220E-02 1.76000E-03 2.57257E-01
 -1      2147-2.74900E-02 1.74400E-03 2.53058E-01
 -1      2148-2.94070E-02 1.66100E-03 5.14640E-02
 -1      2149 1.45390E-02 1.40200E-03 3.53360E-02
 -1      2150 2.92600E-02 8.93000E-04 2.17790E-02
 -1      2151 3.90520E-02-8.20000E-04 1.60720E-02
 -1      2152 2.87200E-02 9.75000E-04 1.07320E-02
 -1      2153-4.04030E-02 5.29000E-04 1.94530E-02
 -1      2154 4.03340E-02-7.31000E-04 3.56850E-02
 -1      2155-4.07660E-02 6.77000E-04 1.69114E-01
 -1      2156 2.73990E-02 1.86300E-03 1.86639E-01
 -1      2157 1.11190E-02 1.94100E-03 1.74210E-02
 -1      2158 3.96000E-03 1.54200E-03 1.88020E-02
 -1      2159-9.42200E-03 1.96200E-03 4.86960E-02
 -1      2160-1.51890E-02 2.08800E-03 4.90250E-02
 -1      2161-2.28000E-04 1.55900E-03 1.38835E-01
 -1      2162 2.20720E-02 1.45100E-03 4.36520E-02
 -1      2163 1.56210E-02 1.04500E-03 4.83740E-02
 -1      2164 2.52600E-02 1.66800E-03 5.03730E-02
 -1      2165-4.15890E-02 7.06000E-04 2.33494E-01
 -1      2166-3.30800E-03 1.72800E-03 2.65843E-01
 -1      2167 1.18240E-02 1.50800E-03 5.39900E-02
 -1      2168 2.14620E-02 2.13200E-03 5.59890E-02
 -1      2169 3.86470E-02-8.48000E-04 2.19874E-01
 -1      2170 4.23900E-02-5.85000E-04 2.14388E-01
 -1      2171 3.10100E-02 5.26000E-04 2.14264E-01
 -1      2172 3.47530E-02 7.90000E-04 2.08778E-01
 -1      2173-4.22760E-02 1.18200E-03 2.74453E-01
 -1      2174-4.03950E-02 1.63100E-03 2.78166E-01
 -1      2175-4.15620E-02 1.44600E-03 2.22098E-01
 -1      2176-4.07310E-02 7.03000E-04 2.08979E-01
 -1      2177 6.63900E-03 1.89800E-03 1.37676E-01
 -1      2178 4.73300E-03 2.06200E-03 1.29719E-01
 -1      2179-3.76110E-02 9.22000E-04 2.82190E-01
 -1      2180-4.12040E-02 5.80000E-04 1.52500E-02
 -1      2181 2.71200E-03 2.00800E-03 2.59660E-01
 -1      2182-3.70730E-02 1.16100E-03 2.46256E-01
 -1      2183-4.09460E-02 1.13700E-03 2.86612E-01
 -1      2184-1.40300E-02 1.87300E-03 4.23920E-02
 -1      2185 1.48470E-02 1.73800E-03 2.00232E-01
 -1      2186 6.74600E-03 1.27700E-03 1.99666E-01
 -1      2187-4.25770E-02 1.30800E-03 2.50810E-02
 -1      2188-4.24020E-02 6.15000E-04 6.56670E-02
 -1      2189 4.77400E-03 1.83500E-03 2.52822E-01
 -1      2190 3.05430E-02 9.82000E-04 3.13930E-02
 -1      2191 4.03340E-02-7.31000E-04 2.56850E-02
 -1      2192 1.56780E-02 1.74500E-03 6.03890E-02
 -1      2193 1.11510E-02 2.20600E-03 6.59620E-02
 -1      2194 7.62200E-03 1.27800E-03 5.90470E-02
 -1      2195-3.28520E-02 1.83700E-03 2.50015E-01
 -1      2196-3.48290E-02 1.94900E-03 2.53639E-01
 -1      2197 1.24900E-03 1.62100E-03 1.44140E-01
 -1      2198 1.08050E-02 2.14900E-03 1.44462E-01
 -1      2199 2.82520E-02 6.49000E-04 1.35120E-01
 -1      2200-2.67260E-02 1.90600E-03 5.61550E-02
 -1      2201 3.32940E-02 4.76000E-04 5.11610E-02
 -1      2202 2.91210E-02 1.13100E-03 5.77170E-02
 -1      2203 4.00380E-02-7.52000E-04 5.82370E-02
 -1      2204 4.29000E-03 2.09600E-03 2.67310E-01
 -1      2205-3.98940E-02 1.06800E-03 2.54638E-01
 -1      2206 2.04180E-02 2.26600E-03 2.95067E-01
 -1      2207 3.05250E-02 9.42000E-04 2.88375E-01
 -1      2208 1.02590E-02 1.46300E-03 1.95008E-01
 -1      2209 4.23900E-02-5.85000E-04 2.04388E-01
 -1      2210 4.01400E-02-7.45000E-04 2.95067E-01
 -1      2211-3.94220E-02 1.30300E-03 2.42041E-01
 -1      2212 6.21700E-03 1.87400E-03 1.79238E-01
 -1      2213 4.31100E-03 2.03800E-03 1.71281E-01
 -1      2214 2.80080E-02 4.09000E-04 2.54631E-01
 -1      2215 2.51630E-02 2.26000E-04 2.46574E-01
 -1      2216 1.64430E-02 1.45800E-03 2.50449E-01
 -1      2217 1.92880E-02 1.64100E-03 2.58506E-01
 -1      2218 2.69980E-02 1.91500E-03 8.77730E-02
 -1      2219 2.35860E-02 1.60900E-03 2.24671E-01
 -1      2220 1.90850E-02 2.14500E-03 2.19356E-01
 -1      2221 1.88620E-02 1.36000E-03 6.60220E-02
 -1      2222 1.55230E-02 1.15400E-03 7.11150E-02
 -1      2223 2.57740E-02 1.82700E-03 7.09170E-02
 -1      2224-2.23910E-02 2.00300E-03 5.24790E-02
 -1      2225 1.15220E-02 2.00000E-03 2.39175E-01
 -1      2226-3.90510E-02 1.27300E-03 2.49880E-01
 -1      2227 4.11660E-02-6.72000E-04 6.75320E-02
 -1      2228-4.19760E-02 1.26400E-03 2.81209E-01
 -1      2229 1.65740E-02 1.32700E-03 2.27740E-02
 -1      2230-3.15500E-03 1.68300E-03 1.24577E-01
 -1      2231 3.45240E-02 8.59000E-04 2.49921E-01
 -1      2232 1.67370E-02 1.93700E-03 2.65904E-01
 -1      2233 1.02350E-02 1.53500E-03 2.71799E-01
 -1      2234 8.65700E-03 1.44700E-03 2.64148E-01
 -1      2235 1.12930E-02 9.19000E-04 8.59760E-02
 -1      2236 7.50500E-03 1.37100E-03 9.11990E-02
 -1      2237 8.89900E-03 2.31300E-03 1.66505E-01
 -1      2238-6.57000E-04 1.78500E-03 1.66184E-01
 -1      2239 4.31100E-03 2.03800E-03 1.61281E-01
 -1      2240 4.11660E-02-6.72000E-04 7.75320E-02
 -1      2241-4.33800E-03 2.03800E-03 1.59768E-01
 -1      2242 4.72500E-03 1.23800E-03 7.53900E-02
 -1      2243 7.50500E-03 1.37100E-03 8.11990E-02
 -1      2244 3.03110E-02 9.74000E-04 2.95067E-01
 -1      2245 1.96780E-02 1.41300E-03 8.68100E-02
 -1      2246 1.58890E-02 1.86500E-03 9.20340E-02
 -1      2247 1.24900E-03 1.62100E-03 1.84140E-01
 -1      2248 4.25280E-02-5.75000E-04 2.55823E-01
 -1      2249 1.82920E-02 1.32400E-03 2.05930E-01
 -1      2250 2.99030E-02 1.05700E-03 4.66100E-03
 -1      2251 6.96800E-03 1.69700E-03 1.16130E-02
 -1      2252 1.76080E-02 1.31300E-03 2.43742E-01
 -1      2253-1.13260E-02 1.81900E-03 1.58166E-01
 -1      2254 1.02590E-02 1.46300E-03 1.55008E-01
 -1      2255 1.00090E-02 2.14200E-03 2.46520E-01
 -1      2256 2.69980E-02 1.91500E-03 1.67773E-01
 -1      2257 1.48470E-02 1.73800E-03 1.60232E-01
 -1      2258 8.62000E-03 1.42900E-03 1.16554E-01
 -1      2259 8.82200E-03 1.83600E-03 2.92437E-01
 -1      2260 2.73350E-02 5.88000E-04 1.18665E-01
 -1      2261 1.71580E-02 1.94800E-03 1.19811E-01
 -1      2262 2.09460E-02 1.49600E-03 1.14588E-01
 -1      2263 2.17030E-02 2.79000E-04 7.50620E-02
 -1      2264 1.17350E-02 1.60600E-03 7.63390E-02
 -1      2265 2.33370E-02 7.43000E-04 6.21170E-02
 -1      2266 1.12080E-02 1.15100E-03 2.56751E-01
 -1      2267-6.83600E-03 1.93600E-03 1.18162E-01
 -1      2268 1.09450E-02 1.56000E-03 9.82400E-02
 -1      2269 1.82920E-02 1.32400E-03 1.65930E-01
 -1      2270 3.19540E-02 9.52000E-04 7.48630E-02
 -1      2271 1.17370E-02 1.36600E-03 1.33731E-01
 -1      2272 1.59030E-02 1.61700E-03 1.40516E-01
 -1      2273 2.32550E-02 1.65100E-03 2.13259E-01
 -1      2274 1.39770E-02 1.06400E-03 2.12512E-01
 -1      2275 2.41880E-02 1.71600E-03 1.02971E-01
 -1      2276 3.05700E-02 8.09000E-04 9.70430E-02
 -1      2277 3.05760E-02 8.08000E-04 1.07049E-01
 -1      2278 2.22640E-02 1.50500E-03 1.39908E-01
 -1      2279 1.86930E-02 1.27200E-03 1.44796E-01
 -1      2280-6.66000E-04 2.21900E-03 1.15490E-01
 -1      2281 2.41880E-02 1.71600E-03 9.29710E-02
 -1      2282 2.03990E-02 2.16800E-03 9.81950E-02
 -1      2283 1.08050E-02 2.14900E-03 1.84462E-01
 -1      2284 1.58970E-02 1.86500E-03 1.12805E-01
 -1      2285 2.09460E-02 1.49600E-03 1.24588E-01
 -1      2286 9.03400E-03 1.81500E-03 5.65200E-03
 -1      2287 1.76220E-02 2.36700E-03 1.17230E-02
 -1      2288 3.01500E-03 1.96600E-03 1.21905E-01
 -1      2289 2.30890E-02 1.14500E-03 2.68122E-01
 -1      2290 1.65870E-02 7.43000E-04 2.74017E-01
 -1      2291 1.03370E-02 1.52500E-03 1.24367E-01
 -1      2292 2.56950E-02 7.68000E-04 2.62849E-01
 -1      2293 3.65640E-02 7.10000E-04 4.58070E-02
 -1      2294 4.33080E-02-5.18000E-04 4.28840E-02
 -1      2295 3.35900E-02 4.97000E-04 3.86090E-02
 -1      2296 1.91580E-02 1.41200E-03 2.36678E-01
 -1      2297 2.01310E-02 4.23000E-04 4.66100E-03
 -1      2298 7.81100E-03 2.00000E-03 7.10550E-02
 -1      2299 1.58890E-02 1.86500E-03 8.20340E-02
 -1      2300 1.41260E-02 1.07300E-03 1.29144E-01
 -1      2301 4.33080E-02-5.18000E-04 5.28840E-02
 -1      2302 2.32770E-02 1.97500E-03 3.27470E-02
 -1      2303 1.94740E-02 1.85000E-03 1.35628E-01
 -1      2304 2.57450E-02 1.32300E-03 2.75568E-01
 -1      2305 7.86900E-03 1.78100E-03 2.78864E-01
 -1      2306 2.50330E-02 1.70900E-03 2.34189E-01
 -1      2307-1.11970E-02 2.05200E-03 2.93645E-01
 -1      2308 3.01060E-02 2.58000E-04 4.44390E-02
 -1      2309 2.30780E-02 1.75300E-03 1.70760E-02
 -1      2310 2.70580E-02 7.44000E-04 3.72230E-02
 -1      2311 2.73350E-02 5.88000E-04 1.28665E-01
 -1      2312 2.58580E-02 5.38000E-04 8.07570E-02
 -1      2313 2.43600E-02 1.84200E-03 2.66900E-02
 -1      2314 1.97890E-02 2.06400E-03 1.56265E-01
 -1      2315 2.32340E-02 1.65000E-03 1.61963E-01
 -1      2316 1.97890E-02 2.06400E-03 1.96265E-01
 -1      2317 2.32340E-02 1.65000E-03 2.01963E-01
 -1      2318 1.68180E-02 1.11600E-03 4.04110E-02
 -1      2319 1.13150E-02 1.34200E-03 1.75293E-01
 -1      2320 1.97930E-02 1.73700E-03 3.85770E-02
 -1      2321 2.36360E-02 1.59800E-03 1.90829E-01
 -1      2322 2.36360E-02 1.59800E-03 1.50829E-01
 -1      2323 1.31170E-02 1.70600E-03 2.77507E-01
 -1      2324 2.18630E-02 1.55700E-03 1.31042E-01
 -1      2325 2.08450E-02 1.94300E-03 1.76549E-01
 -1      2326 1.59030E-02 1.61700E-03 1.70516E-01
 -1      2327 1.59030E-02 1.61700E-03 1.80516E-01
 -1      2328 2.69980E-02 1.91500E-03 2.07773E-01
 -1      2329 3.22100E-02 1.21800E-03 2.58140E-01
 -1      2330-1.31890E-02 1.87300E-03 2.96112E-01
 -1      2331 1.48470E-02 1.73800E-03 1.50232E-01
 -1      2332 1.48470E-02 1.73800E-03 1.90232E-01
 -1      2333 1.86930E-02 1.27200E-03 1.84796E-01
 -1      2334 2.60730E-02 5.06000E-04 1.11659E-01
 -1      2335 2.83510E-02 9.47000E-04 2.70296E-01
 -1      2336 2.76870E-02 1.04100E-03 2.19591E-01
 -1      2337 2.64080E-02 3.73000E-04 2.31617E-01
 -1      2338 2.73290E-02 1.87200E-03 2.29185E-01
 -1      2339 2.36360E-02 1.59800E-03 1.80829E-01
 -1      2340 3.38400E-02 5.50000E-05 2.73815E-01
 -1      2341 2.90540E-02 8.40000E-04 2.81287E-01
 -1      2342 2.32340E-02 1.65000E-03 1.71963E-01
 -1      2343 3.09890E-02 5.25000E-04 2.02968E-01
 -1      2344 2.60600E-02 5.06000E-04 9.08830E-02
 -1      2345-1.29240E-02 2.09100E-03 6.46600E-03
 -1      2346 3.90520E-02-8.20000E-04 6.07200E-03
 -1      2347 4.01400E-02-7.45000E-04 2.85067E-01
 -1      2348 3.53110E-02 1.56000E-04 2.80903E-01
 -1      2349 3.02490E-02 1.21000E-03 6.70110E-02
 -1      2350 2.16300E-03 1.13600E-03 9.51160E-02
 -1      2351 3.95800E-02-7.84000E-04 9.95860E-02
 -1      2352 4.25280E-02-5.75000E-04 2.45823E-01
 -1      2353 4.00940E-02-7.48000E-04 2.39392E-01
 -3
    3C                          1105                                     1
 -1       917    6    0    1
 -2       242        82       236       949       460       464       465      1664      1663      1665
 -1       918    6    0    1
 -2        83       236        82       949       463       464        97      1666      1665      1663
 -1       919    6    0    1
 -2       226       236        83       954       468       463       467      1668      1667      1669
 -1       920    6    0    1
 -2       977       241        89       239      1671       487      1670      1672       488       489
 -1       921    6    0    1
 -2       244       246        80       939       459       452       458      1674      1673      1675
 -1       922    6    0    1
 -2        84       226       957       223       466      1676      1677       470       471      1678
 -1       923    6    0    1
 -2        85       223       966       220       469      1679      1680       473       474      1681
 -1       924    6    0    1
 -2       131       130       977       241       145      1222      1223      1683      1682      1671
 -1       925    6    0    1
 -2       966        86        85       220      1684       100      1680      1681       472       473
 -1       926    6    0    1
 -2       903      1641       161       162      1685      1658      1248      1249      1662       167
 -1       927    6    0    1
 -2        84       226        83       954       466       467        98      1686      1668      1669
 -1       928    6    0    1
 -2       150       151      1619      1006       156      1640      1635      1235      1234      1687
 -1       929    6    0    1
 -2       911       912       986       305      1324      1335      1334      1689      1688      1690
 -1       930    6    0    1
 -2       244        80        81       939       458        95       457      1674      1675      1691
 -1       931    6    0    1
 -2       957        85        84       223      1692        99      1677      1678       469       470
 -1       932    6    0    1
 -2       951       950       926       277      1402      1399      1403      1694      1693      1695
 -1       933    6    0    1
 -2      1005      1620       982       253      1697      1696      1233      1699      1698      1700
 -1       934    6    0    1
 -2      1053       256      1018      1642      1702      1701      1247      1704      1703      1705
 -1       935    6    0    1
 -2       264       986       305       290      1706      1690       798       791      1707       797
 -1       936    6    0    1
 -2       986       264       988       290      1706      1708      1560      1707       791      1709
 -1       937    6    0    1
 -2       269       904       976       905      1711      1277      1710      1712      1274      1278
 -1       938    6    0    1
 -2       307       976       269       904      1713      1710       810      1714      1277      1711
 -1       939    6    0    1
 -2       308       963       920       961      1716      1297      1715      1717      1387      1352
 -1       940    6    0    1
 -2       277       950       926       323      1693      1399      1695       846      1718      1719
 -1       941    6    0    1
 -2       149      1005       150      1620      1231      1232       155      1630      1697      1637
 -1       942    6    0    1
 -2       248        87       972       225       479      1720      1721       482       481      1722
 -1       943    6    0    1
 -2      1053       160       161      1642      1245       166      1246      1704      1653      1659
 -1       944    6    0    1
 -2       108       109       310      1619       114       499       498      1634      1633      1723
 -1       945    6    0    1
 -2       318       992       273       993      1725      1724       830      1726      1568      1727
 -1       946    6    0    1
 -2       308       962       296      1048      1729      1728       764      1730      1510      1731
 -1       947    6    0    1
 -2       265      1057      1015       328      1733      1593      1732       801      1734      1735
 -1       948    6    0    1
 -2       962      1048       308       963      1510      1730      1729      1506      1282      1716
 -1       949    6    0    1
 -2      1620       312       108       107      1736       493      1628      1629       494       113
 -1       950    6    0    1
 -2       232       961       920       913      1738      1352      1737      1739      1351      1347
 -1       951    6    0    1
 -2       950       277       951       320      1693      1694      1402      1740       840      1741
 -1       952    6    0    1
 -2       980       331       979       282      1743      1742      1530      1744       634      1745
 -1       953    6    0    1
 -2       912       305       911       326      1688      1689      1324      1746       870      1747
 -1       954    6    0    1
 -2      1041       273       272       992      1749       819      1748      1573      1724      1750
 -1       955    6    0    1
 -2       978       278       282       280      1752       632      1751      1753       847       780
 -1       956    6    0    1
 -2       308       920       232       961      1715      1737       582      1717      1352      1738
 -1       957    6    0    1
 -2        35        66         2      1019       333        71        65      1068      1754      1069
 -1       958    6    0    1
 -2      1043      1052      1042       302      1584      1488      1124      1756      1755      1757
 -1       959    6    0    1
 -2       328       265      1057       329       801      1733      1734       734       802      1758
 -1       960    6    0    1
 -2      1042       288      1043       302      1760      1759      1124      1757       841      1756
 -1       961    6    0    1
 -2       315       273       318       992       824       830       688      1761      1724      1725
 -1       962    6    0    1
 -2       299      1037       286      1036      1763      1762       825      1764      1136      1765
 -1       963    6    0    1
 -2       910       930       912       326      1329      1328      1325      1767      1766      1746
 -1       964    6    0    1
 -2      1047       275       951       277      1769      1768      1404      1770       834      1694
 -1       965    6    0    1
 -2       986       988       987       290      1560      1112      1337      1707      1709      1771
 -1       966    6    0    1
 -2       987       305       986       290      1772      1690      1337      1771       797      1707
 -1       967    6    0    1
 -2       951      1047      1046       275      1404      1489      1487      1768      1769      1773
 -1       968    6    0    1
 -2      1641        68        69       250      1655        74      1656      1774       441       442
 -1       969    6    0    1
 -2      1057      1015      1013       265      1593      1592      1457      1733      1732      1775
 -1       970    6    0    1
 -2      1005       312      1620       253      1776      1736      1697      1699       497      1698
 -1       971    6    0    1
 -2       269       314       307       904       814       586       810      1711      1777      1714
 -1       972    6    0    1
 -2       314       904       269       905      1777      1711       814      1778      1274      1712
 -1       973    6    0    1
 -2       296      1048       170      1032      1731      1779       507      1780      1527      1781
 -1       974    6    0    1
 -2       258      1028       259      1023      1783      1782       557      1784      1608      1785
 -1       975    6    0    1
 -2       259      1028       177      1023      1782      1786       551      1785      1608      1787
 -1       976    6    0    1
 -2       911       303      1047       322      1789      1788      1327      1790       844      1791
 -1       977    6    0    1
 -2       991       992       318       993      1567      1725      1792      1438      1568      1726
 -1       978    6    0    1
 -2       277       320       950       323       840      1740      1693       846       663      1718
 -1       979    6    0    1
 -2      1042       276       288       302      1793       833      1760      1757       842       841
 -1       980    6    0    1
 -2       299       286       272      1036       825       817       826      1764      1765      1794
 -1       981    6    0    1
 -2       271       273       272      1041       818       819       816      1795      1749      1748
 -1       982    6    0    1
 -2       232       913       920       183      1739      1347      1737       579      1796      1797
 -1       983    6    0    1
 -2       996       193       321       994      1799       660      1798      1454      1800      1801
 -1       984    6    0    1
 -2       276       951       275       277      1802      1768       832       835      1694       834
 -1       985    6    0    1
 -2       308       296       307      1048       764       811       584      1730      1731      1803
 -1       986    6    0    1
 -2       308      1048       307       963      1730      1803       584      1716      1282      1804
 -1       987    6    0    1
 -2       978       282       979       280      1751      1745      1529      1753       780      1805
 -1       988    6    0    1
 -2      1037      1036       299      1050      1136      1764      1763      1558      1574      1806
 -1       989    6    0    1
 -2      1057       265      1013       329      1733      1775      1457      1758       802      1807
 -1       990    6    0    1
 -2      1052       276      1042       302      1808      1793      1488      1755       842      1757
 -1       991    6    0    1
 -2       995      1052      1043       302      1580      1584      1582      1809      1755      1756
 -1       992    6    0    1
 -2       979       282       331       312      1745       634      1742      1810       782       852
 -1       993    6    0    1
 -2       976       268       269      1035      1811       805      1710      1526      1812      1813
 -1       994    6    0    1
 -2      1062      1020       978       285      1539      1537      1538      1815      1814      1816
 -1       995    6    0    1
 -2       273       271       301      1051       818       820       821      1818      1817      1819
 -1       996    6    0    1
 -2      1064       262       263       283      1821       790      1820      1822       370       367
 -1       997    6    0    1
 -2        67      1018       256      1642      1823      1701       438      1650      1705      1703
 -1       998    6    0    1
 -2       319      1007       150      1619      1825      1236      1824      1827      1826      1635
 -1       999    6    0    1
 -2       269       267       297      1049       804       806       807      1829      1828      1830
 -1      1000    6    0    1
 -2       268      1048       296      1032      1831      1731       511      1832      1527      1780
 -1      1001    6    0    1
 -2       914       920       913       183      1348      1347      1344      1833      1797      1796
 -1      1002    6    0    1
 -2       278       978      1020       285      1752      1537      1834       850      1816      1814
 -1      1003    6    0    1
 -2        82       242        81      1010       460       461        96      1836      1835      1837
 -1      1004    6    0    1
 -2      1040       301       271      1051      1839       820      1838      1583      1819      1817
 -1      1005    6    0    1
 -2      1038       234       304       962      1841       565      1840      1508      1842      1843
 -1      1006    6    0    1
 -2      1062       278      1061       279      1845      1844      1540      1846       849      1847
 -1      1007    6    0    1
 -2      1049       267       297      1034      1828       806      1830      1557      1848      1849
 -1      1008    6    0    1
 -2       267       269       268      1035       804       805       803      1850      1813      1812
 -1      1009    6    0    1
 -2       307       296       268      1048       811       511       809      1803      1731      1831
 -1      1010    6    0    1
 -2       278       285      1020       306       850      1814      1834       633       851      1851
 -1      1011    6    0    1
 -2      1038       962       304       961      1508      1843      1840      1507      1505      1852
 -1      1012    6    0    1
 -2      1055       295       958       311      1854      1853      1495      1855       864      1856
 -1      1013    6    0    1
 -2      1047       910       911       322      1326      1323      1327      1791      1857      1790
 -1      1014    6    0    1
 -2       315       992       318       991      1761      1725       688      1858      1567      1792
 -1      1015    6    0    1
 -2       958      1056      1055       311      1500      1501      1495      1856      1859      1855
 -1      1016    6    0    1
 -2       273       992      1041      1051      1724      1573      1749      1818      1570      1575
 -1      1017    6    0    1
 -2       307       963      1048       904      1804      1282      1803      1714      1280      1281
 -1      1018    6    0    1
 -2       951       275      1046       276      1768      1773      1487      1802       832      1860
 -1      1019    6    0    1
 -2       986       305       912       325      1690      1688      1335      1861       799      1862
 -1      1020    6    0    1
 -2       299       984       297      1037      1864      1863       855      1763      1556      1865
 -1      1021    6    0    1
 -2       986       987       911       305      1337      1336      1334      1690      1772      1689
 -1      1022    6    0    1
 -2       988      1014      1064       262      1562      1518      1109      1867      1866      1821
 -1      1023    6    0    1
 -2       982       253      1620       107      1700      1698      1696      1868       496      1629
 -1      1024    6    0    1
 -2      1031        29      1033       171      1146      1151      1152      1869       408      1870
 -1      1025    6    0    1
 -2       253       982       979       280      1700      1543      1871       779      1872      1805
 -1      1026    6    0    1
 -2       951       926      1047       277      1403      1333      1404      1694      1695      1770
 -1      1027    6    0    1
 -2       995       302      1043       301      1809      1756      1582      1873       857      1874
 -1      1028    6    0    1
 -2       256      1053       251      1642      1702      1875       439      1703      1704      1876
 -1      1029    6    0    1
 -2      1007       979       980       331      1542      1530      1541      1877      1742      1743
 -1      1030    6    0    1
 -2      1049       269       976       905      1829      1710      1290      1291      1712      1278
 -1      1031    6    0    1
 -2       267      1049       269      1035      1828      1829       804      1850      1528      1813
 -1      1032    6    0    1
 -2       296      1033       170      1048      1879      1878       507      1731      1513      1779
 -1      1033    6    0    1
 -2       979       978       980       282      1529      1531      1530      1745      1751      1744
 -1      1034    6    0    1
 -2      1047       277       926       322      1770      1695      1333      1791       845      1880
 -1      1035    6    0    1
 -2      1051       273       992       993      1818      1724      1570      1571      1727      1568
 -1      1036    6    0    1
 -2       273      1041       271      1051      1749      1795       818      1818      1575      1817
 -1      1037    6    0    1
 -2       295      1055      1056       311      1854      1501      1881       864      1855      1859
 -1      1038    6    0    1
 -2      1022       177      1024      1023      1883      1882      1601      1595      1787      1600
 -1      1039    6    0    1
 -2       178       259       284      1028       552       560       559      1884      1782      1885
 -1      1040    6    0    1
 -2       269      1049       976      1035      1829      1290      1710      1813      1528      1526
 -1      1041    6    0    1
 -2       912       326       930       206      1746      1766      1328      1886       703      1887
 -1      1042    6    0    1
 -2       330       943      1065       214      1889      1467      1888       539      1890      1891
 -1      1043    6    0    1
 -2       264      1064      1014       262      1893      1518      1892       788      1821      1866
 -1      1044    6    0    1
 -2      1037       299       984      1050      1763      1864      1556      1558      1806      1553
 -1      1045    6    0    1
 -2       308       304       234       962       763       565       765      1729      1843      1842
 -1      1046    6    0    1
 -2       989       978      1020       306      1535      1537      1536      1895      1894      1851
 -1      1047    6    0    1
 -2        81       242       244      1010       461       462       457      1837      1835      1896
 -1      1048    6    0    1
 -2       316       985       199       983      1898      1897       620      1899      1421      1900
 -1      1049    6    0    1
 -2      1049       313       269       905      1901       813      1829      1291      1902      1712
 -1      1050    6    0    1
 -2       285      1060      1020       327      1903      1599      1814       353      1904      1905
 -1      1051    6    0    1
 -2       304       962       308       961      1843      1729       763      1852      1505      1717
 -1      1052    6    0    1
 -2      1049      1035       267      1034      1528      1850      1828      1557      1142      1848
 -1      1053    6    0    1
 -2       322       911       303       326      1790      1789       844       706      1747       871
 -1      1054    6    0    1
 -2      1020       327      1059       292      1905      1906      1566      1907       863      1908
 -1      1055    6    0    1
 -2       259       177       258      1023       551       555       557      1785      1787      1784
 -1      1056    6    0    1
 -2       271      1041      1040      1051      1795      1130      1838      1817      1575      1583
 -1      1057    6    0    1
 -2       299      1036       272      1050      1764      1794       826      1806      1574      1909
 -1      1058    6    0    1
 -2      1007      1619       319      1006      1826      1827      1825      1238      1687      1910
 -1      1059    6    0    1
 -2       305       987       911       303      1772      1336      1689       859      1911      1789
 -1      1060    6    0    1
 -2      1005       108      1620       312      1912      1628      1697      1776       493      1736
 -1      1061    6    0    1
 -2       313      1049       297       984      1901      1830       812      1913      1552      1863
 -1      1062    6    0    1
 -2      1022       180       177      1023      1914       544      1883      1595      1915      1787
 -1      1063    6    0    1
 -2      1044       234       235      1038      1917       512      1916      1616      1841      1918
 -1      1064    6    0    1
 -2       323       950       937       193      1718      1401      1919       650      1920      1921
 -1      1065    6    0    1
 -2       317       301       995      1051       828      1873      1922      1923      1819      1579
 -1      1066    6    0    1
 -2        14      1064       970       283      1105      1106      1101       364      1822      1924
 -1      1067    6    0    1
 -2       181       963       307       904      1925      1804       585      1926      1280      1714
 -1      1068    6    0    1
 -2        35       255        66      1019       432       433       333      1068      1927      1754
 -1      1069    6    0    1
 -2      1056       328      1057       209      1928      1734      1470      1929       735      1930
 -1      1070    6    0    1
 -2       264       986      1014       325      1706      1561      1892       795      1861      1931
 -1      1071    6    0    1
 -2       978       278      1062       285      1752      1845      1538      1816       850      1815
 -1      1072    6    0    1
 -2       979       331      1007       312      1742      1877      1542      1810       852      1932
 -1      1073    6    0    1
 -2       185       980       998       189      1934      1546      1933       529      1935      1936
 -1      1074    6    0    1
 -2       296       170       268      1032       507       510       511      1780      1781      1832
 -1      1075    6    0    1
 -2       950       320       996       193      1740      1937      1453      1920       662      1799
 -1      1076    6    0    1
 -2        67       251        68      1642       437       436        73      1650      1876      1651
 -1      1077    6    0    1
 -2      1047       926       910       322      1333      1332      1326      1791      1880      1857
 -1      1078    6    0    1
 -2      1042      1052       951       276      1488      1484      1486      1793      1808      1802
 -1      1079    6    0    1
 -2       268       976       307      1048      1811      1713       809      1831      1283      1803
 -1      1080    6    0    1
 -2       179      1022      1038      1066      1939      1604      1938      1940      1596      1509
 -1      1081    6    0    1
 -2       180      1066       232       915      1942      1941       570      1943      1350      1944
 -1      1082    6    0    1
 -2      1044      1033       234      1038      1153      1945      1917      1616      1511      1841
 -1      1083    6    0    1
 -2       981       979       982       280      1544      1543      1230      1946      1805      1872
 -1      1084    6    0    1
 -2       305       303       911       326       859      1789      1689       870       871      1747
 -1      1085    6    0    1
 -2       308       234       296       962       765       508       764      1729      1842      1728
 -1      1086    6    0    1
 -2       938       193       996       994      1947      1799      1452      1431      1800      1454
 -1      1087    6    0    1
 -2       303      1045      1047       275      1948      1564      1788       836      1949      1769
 -1      1088    6    0    1
 -2       979       981      1061       280      1544      1082      1533      1805      1946      1950
 -1      1089    6    0    1
 -2       174      1065       175       330      1952      1951       523       530      1888       531
 -1      1090    6    0    1
 -2      1044       235       234      1033      1916       512      1917      1153      1953      1945
 -1      1091    6    0    1
 -2       263      1064       264       262      1820      1893       789       790      1821       788
 -1      1092    6    0    1
 -2      1028       178       177      1024      1884       541      1786      1609      1954      1882
 -1      1093    6    0    1
 -2       263       970      1064       283      1955      1106      1820       367      1924      1822
 -1      1094    6    0    1
 -2      1007       319       331      1017      1825       610      1877      1549      1956      1957
 -1      1095    6    0    1
 -2       930       326       910       203      1766      1767      1329      1958       702      1959
 -1      1096    6    0    1
 -2       178       177       259      1028       541       551       552      1884      1786      1782
 -1      1097    6    0    1
 -2       313       269       297      1049       813       807       812      1901      1829      1830
 -1      1098    6    0    1
 -2       301       317       273      1051       828       829       821      1819      1923      1818
 -1      1099    6    0    1
 -2      1043       302       288       301      1756       841      1759      1874       857       856
 -1      1100    6    0    1
 -2       299       297       286      1037       855       854       825      1763      1865      1762
 -1      1101    6    0    1
 -2       920       183       914       182      1797      1833      1348      1960       574      1961
 -1      1102    6    0    1
 -2       259       260       284      1028       787       431       560      1782      1962      1885
 -1      1103    6    0    1
 -2       959       231       958       293      1964      1963      1492      1965       758      1966
 -1      1104    6    0    1
 -2       914       919       920       182      1356      1294      1348      1961      1967      1960
 -1      1105    6    0    1
 -2       330      1055      1056       295      1969      1501      1968       534      1854      1881
 -1      1106    6    0    1
 -2       175       330      1065       214       531      1888      1951       537       539      1891
 -1      1107    6    0    1
 -2      1065       214       943       948      1891      1890      1467      1468      1970      1464
 -1      1108    6    0    1
 -2       259      1028       258      1026      1782      1783       557      1971      1610      1972
 -1      1109    6    0    1
 -2       258       901       252      1026      1974      1973       756      1972      1261      1975
 -1      1110    6    0    1
 -2       295      1056       330       311      1881      1968       534       864      1859       865
 -1      1111    6    0    1
 -2       950      1052       996       320      1483      1485      1453      1740      1976      1937
 -1      1112    6    0    1
 -2       275      1047       303       277      1769      1788       836       834      1770       837
 -1      1113    6    0    1
 -2       980       282       978       189      1744      1751      1531      1935       631      1977
 -1      1114    6    0    1
 -2       903       252       901      1026      1978      1973      1257      1260      1975      1261
 -1      1115    6    0    1
 -2      1062      1060      1020       285      1090      1599      1539      1815      1903      1814
 -1      1116    6    0    1
 -2       318       273       317       993       830       829       668      1726      1727      1979
 -1      1117    6    0    1
 -2       240      1002       300       250      1981      1980       774       770      1982       445
 -1      1118    6    0    1
 -2       969       127       965       220      1207      1209      1211      1984      1983      1985
 -1      1119    6    0    1
 -2       966       126       956       223      1202      1204      1206      1679      1986      1987
 -1      1120    6    0    1
 -2       125       953       957       226      1199      1201      1197      1989      1988      1676
 -1      1121    6    0    1
 -2       979      1061       978       280      1533      1532      1529      1805      1950      1753
 -1      1122    6    0    1
 -2       226       125       953       954      1989      1199      1988      1668      1195      1200
 -1      1123    6    0    1
 -2      1049       984       313       983      1552      1913      1901      1292      1550      1990
 -1      1124    6    0    1
 -2       291      1045       303       275      1991      1948       838       379      1949       836
 -1      1125    6    0    1
 -2       950       323       320       193      1718       663      1740      1920       650       662
 -1      1126    6    0    1
 -2      1051       317       273       993      1923       829      1818      1571      1979      1727
 -1      1127    6    0    1
 -2      1062       285       278       279      1815       850      1845      1846       350       849
 -1      1128    6    0    1
 -2       296       962      1033      1048      1728      1512      1879      1731      1510      1513
 -1      1129    6    0    1
 -2       277       323       926       322       846      1719      1695       845       704      1880
 -1      1130    6    0    1
 -2      1051       995       317       994      1579      1922      1923      1576      1577      1992
 -1      1131    6    0    1
 -2      1020       172       989       306      1994      1993      1536      1851       520      1895
 -1      1132    6    0    1
 -2       216        31        30      1054       413        60       414      1995      1154      1155
 -1      1133    6    0    1
 -2       905       314       906       924      1778      1996      1275      1284      1997      1285
 -1      1134    6    0    1
 -2       170      1048      1033      1032      1779      1513      1878      1781      1527      1615
 -1      1135    6    0    1
 -2       229       177       180      1023       553       544       554      1998      1787      1915
 -1      1136    6    0    1
 -2      1013      1014       986       325      1563      1561      1343      1999      1931      1861
 -1      1137    6    0    1
 -2      1028       260       284      1029      1962       431      1885      1614      2000      2001
 -1      1138    6    0    1
 -2       989       189       978       306      2002      1977      1535      1895       521      1894
 -1      1139    6    0    1
 -2      1057       209       329       945      1930       732      1758      1456      2003      2004
 -1      1140    6    0    1
 -2       180      1022       179      1066      1914      1939       548      1942      1596      1940
 -1      1141    6    0    1
 -2       988       986      1014       264      1560      1561      1562      1708      1706      1892
 -1      1142    6    0    1
 -2      1056       943      1065       330      1469      1467      1471      1968      1889      1888
 -1      1143    6    0    1
 -2       183       920       181       182      1797      2005       573       574      1960       575
 -1      1144    6    0    1
 -2       326       912       325       206      1746      1862       718       703      1886       719
 -1      1145    6    0    1
 -2       277      1047       303       322      1770      1788       837       845      1791       844
 -1      1146    6    0    1
 -2       276      1052       951       320      1808      1484      1802       839      1976      1741
 -1      1147    6    0    1
 -2       108       310       319      1619       498       501       500      1634      1723      1827
 -1      1148    6    0    1
 -2       940      1013       912       325      1341      1342      1339      2006      1999      1862
 -1      1149    6    0    1
 -2      1050      1036       272       992      1574      1794      1909      1569      1572      1750
 -1      1150    6    0    1
 -2      1022      1016       180      1023      1594      2007      1914      1595      1264      1915
 -1      1151    6    0    1
 -2      1025      1059        11       327      1094      1093      1092      2008      1906       352
 -1      1152    6    0    1
 -2      1007       331       980      1017      1877      1743      1541      1549      1957      1547
 -1      1153    6    0    1
 -2       174      1055      1065       330      2009      1482      1952       530      1969      1888
 -1      1154    6    0    1
 -2       920       308       181       963      1715       583      2005      1297      1716      1925
 -1      1155    6    0    1
 -2      1015       311       970       263      2011      2010      1498      2012       761      1955
 -1      1156    6    0    1
 -2       972        88        87       248      2013       102      1720      1721       478       479
 -1      1157    6    0    1
 -2      1025       327        11       294      2008       352      1092      2014       356       355
 -1      1158    6    0    1
 -2       982       148       981      1621      1229      1079      1230      2015      1627      2016
 -1      1159    6    0    1
 -2      1025       230       960       294      2018      2017      1100      2014       359      2019
 -1      1160    6    0    1
 -2       175       214      1065       948       537      1891      1951      2020      1970      1468
 -1      1161    6    0    1
 -2       278       978       189       306      1752      1977       630       633      1894       521
 -1      1162    6    0    1
 -2      1046      1047      1045       275      1489      1564      1118      1773      1769      1949
 -1      1163    6    0    1
 -2       278       280      1061       279       847      1950      1844       849       848      1847
 -1      1164    6    0    1
 -2      1052       302       995       321      1755      1809      1580      2021       868      2022
 -1      1165    6    0    1
 -2       958      1055       960       295      1495      1496      1493      1853      1854      2023
 -1      1166    6    0    1
 -2       963       308       962       961      1716      1729      1506      1387      1717      1505
 -1      1167    6    0    1
 -2       313       297       316       984       812       867       623      1913      1863      2024
 -1      1168    6    0    1
 -2       988       264      1014       262      1708      1892      1562      1867       788      1866
 -1      1169    6    0    1
 -2       234      1038      1033       962      1841      1511      1945      1842      1508      1512
 -1      1170    6    0    1
 -2       314       269       313       905       814       813       621      1778      1712      1902
 -1      1171    6    0    1
 -2       316       297       299       984       867       855       866      2024      1863      1864
 -1      1172    6    0    1
 -2       951      1046      1042       276      1487      1121      1486      1802      1860      1793
 -1      1173    6    0    1
 -2       211       329       209       945       716       732       727      2025      2004      2003
 -1      1174    6    0    1
 -2      1028       284       178      1029      1885       559      1884      1614      2001      2026
 -1      1175    6    0    1
 -2      1038       304       179      1066      1840       562      1938      1509      2027      1940
 -1      1176    6    0    1
 -2       253       979       282       280      1871      1745       781       779      1805       780
 -1      1177    6    0    1
 -2        69       300      1002       250       444      1980      2028       442       445      1982
 -1      1178    6    0    1
 -2      1033       296       234       962      1879       508      1945      1512      1728      1842
 -1      1179    6    0    1
 -2       320      1052       996       321      1976      1485      1937       661      2021      1798
 -1      1180    6    0    1
 -2       269       307       268       976       810       809       805      1710      1713      1811
 -1      1181    6    0    1
 -2       995       317       321       301      1922       670      2022      1873       828       869
 -1      1182    6    0    1
 -2       988       290       264       262      1709       791      1708      1867       373       788
 -1      1183    6    0    1
 -2      1066       915       180      1016      1350      1943      1942      1363      1362      2007
 -1      1184    6    0    1
 -2       292      1020       327       306      1907      1905       863       522      1851       853
 -1      1185    6    0    1
 -2       995       321       302       301      2022       868      1809      1873       869       857
 -1      1186    6    0    1
 -2       985       929       199       983      1411      2029      1897      1421      1392      1900
 -1      1187    6    0    1
 -2      1056      1015      1057       328      1499      1593      1470      1928      1735      1734
 -1      1188    6    0    1
 -2       181       232       308       920       578       582       583      2005      1737      1715
 -1      1189    6    0    1
 -2       264      1014       265       325      1892      2030       793       795      1931       796
 -1      1190    6    0    1
 -2       960       293       958       295      2031      1966      1493      2023       862      1853
 -1      1191    6    0    1
 -2       328      1056       330       209      1928      1968       736       735      1929       733
 -1      1192    6    0    1
 -2       940       325       912       206      2006      1862      1339      2032       719      1886
 -1      1193    6    0    1
 -2       316       199       186       983       620       617       619      1899      1900      2033
 -1      1194    6    0    1
 -2       194       321       193       994       659       660       642      2034      1801      1800
 -1      1195    6    0    1
 -2      1056      1057       943       209      1470      1466      1469      1929      1930      2035
 -1      1196    6    0    1
 -2      1062       978      1061       278      1538      1532      1540      1845      1752      1844
 -1      1197    6    0    1
 -2       276       302      1052       320       842      1755      1808       839       843      1976
 -1      1198    6    0    1
 -2       256       251        67      1642       439       437       438      1703      1876      1650
 -1      1199    6    0    1
 -2       252       258       229       901       756       556       751      1973      1974      2036
 -1      1200    6    0    1
 -2      1015       970      1014       263      1498      1517      1516      2012      1955      2037
 -1      1201    6    0    1
 -2      1621       148       981       254      1627      1079      2016      2039      2038      2040
 -1      1202    6    0    1
 -2       998       173       185       189      2041       528      1933      1936       516       529
 -1      1203    6    0    1
 -2       278       978      1061       280      1752      1532      1844       847      1753      1950
 -1      1204    6    0    1
 -2      1041       272      1036       992      1748      1794      1133      1573      1750      1572
 -1      1205    6    0    1
 -2       307      1048       976       904      1803      1283      1713      1714      1281      1277
 -1      1206    6    0    1
 -2       960      1025        12       230      1100      1091      1098      2017      2018       358
 -1      1207    6    0    1
 -2       150      1620      1005       108      1637      1697      1232      1636      1628      1912
 -1      1208    6    0    1
 -2       258       252       251      1026       756       775       776      1972      1975      2042
 -1      1209    6    0    1
 -2       325       305       912       326       799      1688      1862       718       870      1746
 -1      1210    6    0    1
 -2       995       996      1052       321      1578      1485      1580      2022      1798      2021
 -1      1211    6    0    1
 -2       199       991       318       927      2043      1792       681      2044      1412      2045
 -1      1212    6    0    1
 -2       922       923       186       924      1388      2046      2047      1287      1389      2048
 -1      1213    6    0    1
 -2       186       905       922       924      2049      1286      2047      2048      1284      1287
 -1      1214    6    0    1
 -2       920       181       232       183      2005       578      1737      1797       573       579
 -1      1215    6    0    1
 -2       901       258       229      1023      1974       556      2036      1265      1784      1998
 -1      1216    6    0    1
 -2       180       915       232       233      1943      1944       570       569      2050       571
 -1      1217    6    0    1
 -2      1619      1007       150      1006      1826      1236      1635      1687      1238      1235
 -1      1218    6    0    1
 -2       311      1056       330       328      1859      1968       865       800      1928       736
 -1      1219    6    0    1
 -2       985       315       199       991      2051       687      1897      1414      1858      2043
 -1      1220    6    0    1
 -2      1045       303       987       291      1948      1911      1115      1991       838      2052
 -1      1221    6    0    1
 -2       327      1025      1059       294      2008      1094      1906       356      2014      2053
 -1      1222    6    0    1
 -2        68      1641       903       250      1655      1685      2054       441      1774      2055
 -1      1223    6    0    1
 -2       963       181       906       904      1925      2056      1279      1280      1926      1276
 -1      1224    6    0    1
 -2       180       179       304      1066       548       562       561      1942      1940      2027
 -1      1225    6    0    1
 -2       318       199       315       991       681       687       688      1792      2043      1858
 -1      1226    6    0    1
 -2        22       289       271      1040       386       391       389      1125      2057      1838
 -1      1227    6    0    1
 -2       267        26       287      1034       401       398       403      1848      1137      2058
 -1      1228    6    0    1
 -2       264      1014      1064       263      1892      1518      1893       789      2037      1820
 -1      1229    6    0    1
 -2       987      1045      1047       303      1115      1564      1338      1911      1948      1788
 -1      1230    6    0    1
 -2       322       910       911       326      1857      1323      1790       706      1767      1747
 -1      1231    6    0    1
 -2       304      1066      1038       961      2027      1509      1840      1852      1353      1507
 -1      1232    6    0    1
 -2      1028      1027       260      1029      1613      2059      1962      1614      1460      2000
 -1      1233    6    0    1
 -2      1029       178      1028      1030      2026      1884      1614      1162      2060      1611
 -1      1234    6    0    1
 -2      1620       253       312       107      1698       497      1736      1629       496       494
 -1      1235    6    0    1
 -2       950       951      1052       320      1402      1484      1483      1740      1741      1976
 -1      1236    6    0    1
 -2       986       264       305       325      1706       798      1690      1861       795       799
 -1      1237    6    0    1
 -2      1014       265      1015       263      2030      1732      1516      2037       792      2012
 -1      1238    6    0    1
 -2       319       150       108      1619      1824      1636       500      1827      1635      1634
 -1      1239    6    0    1
 -2       321       996       320       193      1798      1937       661       660      1799       662
 -1      1240    6    0    1
 -2      1014       970      1064       263      1517      1106      1518      2037      1955      1820
 -1      1241    6    0    1
 -2       180      1016       229      1023      2007      2061       554      1915      1264      1998
 -1      1242    6    0    1
 -2      1047       911       987       303      1327      1336      1338      1788      1789      1911
 -1      1243    6    0    1
 -2       194       994       938       931      2034      1431      2062      2063      1430      1426
 -1      1244    6    0    1
 -2       316       984       299      1050      2024      1864       866      2064      1553      1806
 -1      1245    6    0    1
 -2       930       206       326       203      1887       703      1766      1958       700       702
 -1      1246    6    0    1
 -2       961       232      1066       913      1738      1941      1353      1351      1739      1349
 -1      1247    6    0    1
 -2       285       327      1020       306       353      1905      1814       851       853      1851
 -1      1248    6    0    1
 -2       982      1621       981       254      2015      2016      1230      2065      2039      2040
 -1      1249    6    0    1
 -2      1024       177      1028      1023      1882      1786      1609      1600      1787      1608
 -1      1250    6    0    1
 -2       958       293       231       311      1966       758      1963      1856       762       760
 -1      1251    6    0    1
 -2       278      1020       978       306      1834      1537      1752       633      1851      1894
 -1      1252    6    0    1
 -2      1013       325       940       329      1999      2006      1341      1807       720      2066
 -1      1253    6    0    1
 -2       322       926       910       203      1880      1332      1857       705      2067      1959
 -1      1254    6    0    1
 -2       185       331       980       189       603      1743      1934       529       604      1935
 -1      1255    6    0    1
 -2       232       915       913       183      1944      1346      1739       579      2068      1796
 -1      1256    6    0    1
 -2       272       315       299      1050       823       827       826      1909      2069      1806
 -1      1257    6    0    1
 -2       970       263        14       283      1955       365      1101      1924       367       364
 -1      1258    6    0    1
 -2       315      1050       272       992      2069      1909       823      1761      1569      1750
 -1      1259    6    0    1
 -2       943       330      1056       209      1889      1968      1469      2035       733      1929
 -1      1260    6    0    1
 -2       997       998       185      1017      1377      1933      2070      1585      1548      2071
 -1      1261    6    0    1
 -2      1028      1023       258      1026      1608      1784      1783      1610      1266      1972
 -1      1262    6    0    1
 -2       256      1053      1018      1026      1702      1247      1701      2072      1273      1597
 -1      1263    6    0    1
 -2       990       989      1020       172      1478      1536      1565      2073      1993      1994
 -1      1264    6    0    1
 -2       913       232      1066       915      1739      1941      1349      1346      1944      1350
 -1      1265    6    0    1
 -2       189       989       172       306      2002      1993       517       521      1895       520
 -1      1266    6    0    1
 -2       276      1042       288       274      1793      1760       833       831      2074       385
 -1      1267    6    0    1
 -2        12       230      1025       294       358      2018      1091       354       359      2014
 -1      1268    6    0    1
 -2       220       127       965       966      1983      1209      1985      1681      1203      1210
 -1      1269    6    0    1
 -2       223       126       956       957      1986      1204      1987      1678      1198      1205
 -1      1270    6    0    1
 -2       286       270       272      1036       397       815       817      1765      2075      1794
 -1      1271    6    0    1
 -2       172      1020       990       306      1994      1565      2073       520      1851      2076
 -1      1272    6    0    1
 -2        28      1032       266      1031      1143      2077       404      1147      1148      2078
 -1      1273    6    0    1
 -2      1013       265      1014       325      1775      2030      1563      1999       796      1931
 -1      1274    6    0    1
 -2       255      1018      1643       942      2081      2079      2080      2082      1243      2083
 -1      1275    6    0    1
 -2       313       905      1049       983      1902      1291      1901      1990      1289      1292
 -1      1276    6    0    1
 -2      1015       265       311       263      1732       794      2011      2012       792       761
 -1      1277    6    0    1
 -2       987       303       305       290      1911       859      1772      1771       858       797
 -1      1278    6    0    1
 -2       960       292       293       295      2084       861      2031      2023       532       862
 -1      1279    6    0    1
 -2       313       984       316       983      1913      2024       623      1990      1550      1899
 -1      1280    6    0    1
 -2       950       937       925       323      1401      1311      1400      1718      1919      2085
 -1      1281    6    0    1
 -2         7       254       148       106       342      2038      1067       332       343      1622
 -1      1282    6    0    1
 -2        67      1643       255      1018      1648      2080       435      1823      2079      2081
 -1      1283    6    0    1
 -2       909       208       243      1009      2087       708      2086      1303      2088      2089
 -1      1284    6    0    1
 -2       947       184       175       916      2091       525      2090      1371      2092      2093
 -1      1285    6    0    1
 -2      1052       320       302       321      1976       843      1755      2021       661       868
 -1      1286    6    0    1
 -2       329       940      1057       945      2066      1455      1758      2004      1450      1456
 -1      1287    6    0    1
 -2       330       209       943       214       733      2035      1889       539       731      1890
 -1      1288    6    0    1
 -2       317       995       321       994      1922      2022       670      1992      1577      1801
 -1      1289    6    0    1
 -2       226       227       236       954       675       656       468      1668      2094      1667
 -1      1290    6    0    1
 -2       175       947      1065       174      2090      1475      1951       523      2095      1952
 -1      1291    6    0    1
 -2       259      1027      1028      1026      2096      1613      1782      1971      1598      1610
 -1      1292    6    0    1
 -2       231       970       958       311      2097      1494      1963       760      2010      1856
 -1      1293    6    0    1
 -2      1056       311      1015       328      1859      2011      1499      1928       800      1735
 -1      1294    6    0    1
 -2       978       189       282       278      1977       631      1751      1752       630       632
 -1      1295    6    0    1
 -2       179      1039       235      1038      2099      2098       563      1938      1606      1918
 -1      1296    6    0    1
 -2       180      1016       915       233      2007      1362      1943       569      2100      2050
 -1      1297    6    0    1
 -2       297       984      1049      1034      1863      1552      1830      1849      1555      1557
 -1      1298    6    0    1
 -2       331       282       980       189       634      1744      1743       604       631      1935
 -1      1299    6    0    1
 -2       260      1028       259      1027      1962      1782       787      2059      1613      2096
 -1      1300    6    0    1
 -2       317       993      1051       994      1979      1571      1923      1992      1432      1576
 -1      1301    6    0    1
 -2       234       170       296      1033       506       507       508      1945      1878      1879
 -1      1302    6    0    1
 -2       216        30       235      1054       414       415       417      1995      1155      2101
 -1      1303    6    0    1
 -2       252       903       251      1026      1978      2102       775      1975      1260      2042
 -1      1304    6    0    1
 -2      1050       992       315       991      1569      1761      2069      1559      1567      1858
 -1      1305    6    0    1
 -2       186       923       922       197      2046      1388      2047       615      2103      2104
 -1      1306    6    0    1
 -2      1015       958       970       311      1497      1494      1498      2011      1856      2010
 -1      1307    6    0    1
 -2       235      1039      1044      1038      2098      1617      1916      1918      1606      1616
 -1      1308    6    0    1
 -2       324        32       215      1030       422       419       423      2105      1163      2106
 -1      1309    6    0    1
 -2        35       942       255      1019      1168      2082       432      1068      1171      1927
 -1      1310    6    0    1
 -2       951       277       276       320      1694       835      1802      1741       840       839
 -1      1311    6    0    1
 -2       255       942      1643       159      2082      2083      2080      2107      1244      1649
 -1      1312    6    0    1
 -2      1045       987        17       291      1115      1110      1114      1991      2052       375
 -1      1313    6    0    1
 -2       301      1040       995      1051      1839      1581      1873      1819      1583      1579
 -1      1314    6    0    1
 -2       967       924       919       188      1382      1296      1383      2109      2108      2110
 -1      1315    6    0    1
 -2      1016       180       228       233      2007       567      2111      2100       569       568
 -1      1316    6    0    1
 -2       970       311       231       263      2010       760      2097      1955       761       366
 -1      1317    6    0    1
 -2        20       288      1042       274       384      1760      1119       380       385      2074
 -1      1318    6    0    1
 -2       270       286        24      1036       397       396       392      2075      1765      1131
 -1      1319    6    0    1
 -2       329       211       940       945       716      2112      2066      2004      2025      1450
 -1      1320    6    0    1
 -2      1027       259       256      1026      2096       785      2113      1598      1971      2072
 -1      1321    6    0    1
 -2      1048       268       976      1032      1831      1811      1283      1527      1832      1525
 -1      1322    6    0    1
 -2       996       937       950       193      1451      1401      1453      1799      1921      1920
 -1      1323    6    0    1
 -2       942      1018      1643       159      1243      2079      2083      1244      1242      1649
 -1      1324    6    0    1
 -2       252       903       901       902      1978      1257      1973      2114      1256      1255
 -1      1325    6    0    1
 -2       184       998       185       997      2115      1933       527      2116      1377      2070
 -1      1326    6    0    1
 -2       329       325       940       206       720      2006      2066       717       719      2032
 -1      1327    6    0    1
 -2      1059      1020      1060       327      1566      1599      1095      1906      1905      1904
 -1      1328    6    0    1
 -2       325      1013       265       329      1999      1775       796       720      1807       802
 -1      1329    6    0    1
 -2       979      1007      1005       312      1542      1237      1545      1810      1932      1776
 -1      1330    6    0    1
 -2       905       186       314       924      2049       616      1778      1284      2048      1997
 -1      1331    6    0    1
 -2       197       927       199       196      2117      2044       618       678      2118       679
 -1      1332    6    0    1
 -2       276      1046      1042       274      1860      1121      1793       831      2119      2074
 -1      1333    6    0    1
 -2       315       199       316       985       687       620       686      2051      1897      1898
 -1      1334    6    0    1
 -2      1034       297       984      1037      1849      1863      1555      1139      1865      1556
 -1      1335    6    0    1
 -2      1032       268       976      1035      1832      1811      1525      1145      1812      1526
 -1      1336    6    0    1
 -2       289       301       271      1040       822       820       391      2057      1839      1838
 -1      1337    6    0    1
 -2         7       981       148       254      1078      1079      1067       342      2040      2038
 -1      1338    6    0    1
 -2       324        33        32      1029       421        62       422      2120      1160      1161
 -1      1339    6    0    1
 -2       287       297       267      1034       808       806       403      2058      1849      1848
 -1      1340    6    0    1
 -2       936       243       208      1009      2122       708      2121      1322      2089      2088
 -1      1341    6    0    1
 -2       315       985      1050       991      2051      1554      2069      1858      1414      1559
 -1      1342    6    0    1
 -2       933       318       991       927      2123      1792      1413      1408      2045      1412
 -1      1343    6    0    1
 -2       315       272       273       992       823       819       824      1761      1750      1724
 -1      1344    6    0    1
 -2      1043       301       288       289      1874       856      1759      2124       822       388
 -1      1345    6    0    1
 -2       301      1043       995      1040      1874      1582      1873      1839      1127      1581
 -1      1346    6    0    1
 -2       286       297       287      1037       854       808       400      1762      1865      2125
 -1      1347    6    0    1
 -2       248       973       249       212      2127      2126       485       741      2128       745
 -1      1348    6    0    1
 -2       919       181       920       182      2129      2005      1294      1967       575      1960
 -1      1349    6    0    1
 -2       942       159       255      1019      1244      2107      2082      1171      1070      1927
 -1      1350    6    0    1
 -2      1053      1018       160      1642      1247      1241      1245      1704      1705      1653
 -1      1351    6    0    1
 -2       215       176       178      1030       545       540       546      2106      2130      2060
 -1      1352    6    0    1
 -2       175       948       947       916      2020      1373      2090      2093      1372      1371
 -1      1353    6    0    1
 -2       171       234       235      1033       505       512       416      1870      1945      1953
 -1      1354    6    0    1
 -2       984      1050       316       985      1553      2064      2024      1551      1554      1898
 -1      1355    6    0    1
 -2       287        26        25      1034       398        55       399      2058      1137      1138
 -1      1356    6    0    1
 -2       289        22        21      1040       386        51       387      2057      1125      1126
 -1      1357    6    0    1
 -2       194       932       931       190      2131      1423      2063       643      2132      2133
 -1      1358    6    0    1
 -2      1056       958      1015       311      1500      1497      1499      1859      1856      2011
 -1      1359    6    0    1
 -2       970       958       959       231      1494      1492      1103      2097      1963      1964
 -1      1360    6    0    1
 -2       924       314       906       188      1997      1996      1285      2108       580      2134
 -1      1361    6    0    1
 -2       193       937       323       191      1921      1919       650       638      2135       649
 -1      1362    6    0    1
 -2       208       909       936      1009      2087      1321      2121      2088      1303      1322
 -1      1363    6    0    1
 -2      1055       330       174       295      1969       530      2009      1854       534       533
 -1      1364    6    0    1
 -2       926       322       323       203      1880       704      1719      2067       705       654
 -1      1365    6    0    1
 -2       316       299       315      1050       866       827       686      2064      1806      2069
 -1      1366    6    0    1
 -2       940       206       930       936      2032      1887      1340      1422      2136      1320
 -1      1367    6    0    1
 -2       929       186       199       983      2137       617      2029      1392      2033      1900
 -1      1368    6    0    1
 -2       938       194       193       994      2062       642      1947      1431      2034      1800
 -1      1369    6    0    1
 -2       971       183       213       182      2139       588      2138      2140       574       587
 -1      1370    6    0    1
 -2       294       960      1059       292      2019      1503      2053       860      2084      1908
 -1      1371    6    0    1
 -2      1040       271        22      1041      1838       389      1125      1130      1795      1129
 -1      1372    6    0    1
 -2       267      1035        26      1034      1850      1141       401      1848      1142      1137
 -1      1373    6    0    1
 -2       319       185       331      1017       609       603       610      1956      2071      1957
 -1      1374    6    0    1
 -2       307       181       308       963       585       583       584      1804      1925      1716
 -1      1375    6    0    1
 -2       290        17       987       291       371      1110      1771       376       375      2052
 -1      1376    6    0    1
 -2       316      1050       315       985      2064      2069       686      1898      1554      2051
 -1      1377    6    0    1
 -2       199       927       318       196      2044      2045       681       679      2118       666
 -1      1378    6    0    1
 -2       327      1059        11      1060      1906      1093       352      1904      1095      1089
 -1      1379    6    0    1
 -2       185       999       218      1017      2142      2141       598      2071      1588      2143
 -1      1380    6    0    1
 -2       208       930       206       936      2144      1887       701      2121      1320      2136
 -1      1381    6    0    1
 -2       261       256       255      1018       784       440       434      2145      1701      2081
 -1      1382    6    0    1
 -2       996       321       995       994      1798      2022      1578      1454      1801      1577
 -1      1383    6    0    1
 -2       324      1029        32      1030      2120      1161       422      2105      1162      1163
 -1      1384    6    0    1
 -2      1039      1038       179      1022      1606      1938      2099      1605      1604      1939
 -1      1385    6    0    1
 -2       177      1024       176      1022      1882      2146       542      1883      1601      2147
 -1      1386    6    0    1
 -2       301       289      1043      1040       822      2124      1874      1839      2057      1127
 -1      1387    6    0    1
 -2       990       292       172       306      2148       519      2073      2076       522       520
 -1      1388    6    0    1
 -2      1034       287       297      1037      2058       808      1849      1139      2125      1865
 -1      1389    6    0    1
 -2       218       999       997      1017      2141      1586      2149      2143      1588      1585
 -1      1390    6    0    1
 -2       986       912      1013       325      1335      1342      1343      1861      1862      1999
 -1      1391    6    0    1
 -2       286       287        25      1037       400       399       395      1762      2125      1134
 -1      1392    6    0    1
 -2        77       217       298      1000       447       448       337      2151      2150      2152
 -1      1393    6    0    1
 -2      1043       288        21       289      1759       383      1122      2124       388       387
 -1      1394    6    0    1
 -2      1061       280       281       279      1950       783      2153      1847       848       347
 -1      1395    6    0    1
 -2       178      1030       176      1024      2060      2130       540      1954      1612      2146
 -1      1396    6    0    1
 -2       176       180       177      1022       543       544       542      2147      1914      1883
 -1      1397    6    0    1
 -2       914       913       915       183      1344      1346      1345      1833      1796      2068
 -1      1398    6    0    1
 -2      1045       291        18       275      1991       374      1113      1949       379       377
 -1      1399    6    0    1
 -2       184       947       998       916      2091      1374      2115      2092      1371      1375
 -1      1400    6    0    1
 -2      1034        25       287      1037      1138       399      2058      1139      1134      2125
 -1      1401    6    0    1
 -2      1043       289        21      1040      2124       387      1122      1127      2057      1126
 -1      1402    6    0    1
 -2      1055      1065       947       174      1482      1475      1480      2009      1952      2095
 -1      1403    6    0    1
 -2      1001       118        78       119      1172       876      2154      1173       133       878
 -1      1404    6    0    1
 -2       272      1036       270      1041      1794      2075       815      1748      1133      2155
 -1      1405    6    0    1
 -2        23       271       270      1041       390       394       393      1128      1795      2155
 -1      1406    6    0    1
 -2       966       223       222       220      1679       683      2156      1681       474       629
 -1      1407    6    0    1
 -2       991       993       318       933      1438      1726      1792      1413      1429      2123
 -1      1408    6    0    1
 -2      1037        24       286      1036      1135       396      1762      1136      1131      1765
 -1      1409    6    0    1
 -2       970       231        14       263      2097       360      1101      1955       366       365
 -1      1410    6    0    1
 -2       999       185       310      1017      2142       608      2157      1588      2071      2158
 -1      1411    6    0    1
 -2      1042        20      1043       288      1119      1123      1124      1760       384      1759
 -1      1412    6    0    1
 -2       947       174       173       172      2095       514      2159      2160       513       515
 -1      1413    6    0    1
 -2       304       232       180      1066       572       570       561      2027      1941      1942
 -1      1414    6    0    1
 -2       937       191       193       190      2135       638      1921      2161       637       639
 -1      1415    6    0    1
 -2       200       916       917       918      2163      1364      2162      2164      1366      1365
 -1      1416    6    0    1
 -2       235      1044       171      1033      1916      2165       416      1953      1153      1870
 -1      1417    6    0    1
 -2       980       185       998      1017      1934      1933      1546      1547      2071      1548
 -1      1418    6    0    1
 -2       229      1016       228       901      2061      2111       566      2036      1263      2166
 -1      1419    6    0    1
 -2       985       316       984       983      1898      2024      1551      1421      1899      1550
 -1      1420    6    0    1
 -2         7       148         1       106      1067       153        36       332      1622       111
 -1      1421    6    0    1
 -2       202       916       200       918      2167      2163       600      2168      1366      2164
 -1      1422    6    0    1
 -2       958       295       293       311      1853       862      1966      1856       864       762
 -1      1423    6    0    1
 -2       294      1059       327       292      2053      1906       356       860      1908       863
 -1      1424    6    0    1
 -2       969       968        87       221      1215      2169      2170      2172      2171       475
 -1      1425    6    0    1
 -2        34       284       260       941       424       431       429      1165      2173      2174
 -1      1426    6    0    1
 -2       901       229      1016      1023      2036      2061      1263      1265      1998      1264
 -1      1427    6    0    1
 -2       171        29      1033      1044       408      1151      1870      2165      1150      1153
 -1      1428    6    0    1
 -2       266      1032       170      1031      2077      1781       411      2078      1148      2175
 -1      1429    6    0    1
 -2        27       267       266      1035       402       406       405      1140      1850      2176
 -1      1430    6    0    1
 -2       191       190       937       908       637      2161      2135      2178      2177      1312
 -1      1431    6    0    1
 -2       292       990      1020       306      2148      1565      1907       522      2076      1851
 -1      1432    6    0    1
 -2      1018       261       256      1027      2145       784      1701      1461      2179      2113
 -1      1433    6    0    1
 -2       270        24        23      1036       392        53       393      2075      1131      1132
 -1      1434    6    0    1
 -2         7       281       981       254       340      2180      1078       342       344      2040
 -1      1435    6    0    1
 -2       228       901      1016      1004      2166      1263      2111      2181      1258      1262
 -1      1436    6    0    1
 -2       906       181       920       919      2056      2005      1295      1293      2129      1294
 -1      1437    6    0    1
 -2      1042        19        20       274      1120        49      1119      2074       381       380
 -1      1438    6    0    1
 -2       179       216       235      1039       549       417       563      2099      2182      2098
 -1      1439    6    0    1
 -2      1007      1006       319      1017      1238      1910      1825      1549      1591      1956
 -1      1440    6    0    1
 -2       178      1029       324      1030      2026      2120       558      2060      1162      2105
 -1      1441    6    0    1
 -2       978       989       980       189      1535      1534      1531      1977      2002      1935
 -1      1442    6    0    1
 -2       261      1018       255       942      2145      2081       434      2183      1243      2082
 -1      1443    6    0    1
 -2       266       170        28      1031       411       409       404      2078      2175      1147
 -1      1444    6    0    1
 -2       947       173       989       172      2159      2184      1476      2160       515      1993
 -1      1445    6    0    1
 -2       188       967       924       187      2109      1382      2108       612      2185      2186
 -1      1446    6    0    1
 -2       284        34        33       941       424        63       425      2173      1165      1166
 -1      1447    6    0    1
 -2      1063         8         9       279      1080        38      1081      2187       345       346
 -1      1448    6    0    1
 -2      1046       276       275       274      1860       832      1773      2119       831       382
 -1      1449    6    0    1
 -2      1014      1013      1015       265      1563      1592      1516      2030      1775      1732
 -1      1450    6    0    1
 -2       229       258       177      1023       556       555       553      1998      1784      1787
 -1      1451    6    0    1
 -2        12       959       960       230      1097      1099      1098       358      2188      2017
 -1      1452    6    0    1
 -2       228      1004      1016       233      2181      1262      2111       568      2189      2100
 -1      1453    6    0    1
 -2       171       170       234      1033       410       506       505      1870      1878      1945
 -1      1454    6    0    1
 -2       266        28        27      1032       404        57       405      2077      1143      1144
 -1      1455    6    0    1
 -2       329       206       940       211       717      2032      2066       716       715      2112
 -1      1456    6    0    1
 -2       186       188       924       187       611      2108      2048       613       612      2186
 -1      1457    6    0    1
 -2      1028      1030       178      1024      1611      2060      1884      1609      1612      1954
 -1      1458    6    0    1
 -2        78       217        77      1001       446       447        92      2154      2190      2191
 -1      1459    6    0    1
 -2       959       958       960       293      1492      1493      1099      1965      1966      2031
 -1      1460    6    0    1
 -2       179       235       234      1038       563       512       564      1938      1918      1841
 -1      1461    6    0    1
 -2       290       987       303       291      1771      1911       858       376      2052       838
 -1      1462    6    0    1
 -2      1012       214       202       948      2193       538      2192      1376      1970      2194
 -1      1463    6    0    1
 -2       271        23        22      1041       390        52       389      1795      1128      1129
 -1      1464    6    0    1
 -2       910       326       322       203      1767       706      1857      1959       702       705
 -1      1465    6    0    1
 -2      1058      1039       176      1022      1607      2195      2196      1603      1605      2147
 -1      1466    6    0    1
 -2       943       209      1057       945      2035      1930      1466      1463      2003      1456
 -1      1467    6    0    1
 -2       938       908       190       952      1313      2177      2197      1315      1316      2198
 -1      1468    6    0    1
 -2        26       267        27      1035       401       402        56      1141      1850      1140
 -1      1469    6    0    1
 -2       949       236       946       954      1665      2199      1306      1196      1667      1473
 -1      1470    6    0    1
 -2       990       292       960       295      2148      2084      1502      2200       532      2023
 -1      1471    6    0    1
 -2      1004       915      1016       233      1360      1362      1262      2189      2050      2100
 -1      1472    6    0    1
 -2       201       205        79       918       454       449       455      2202      2201      2203
 -1      1473    6    0    1
 -2       176      1039       179      1022      2195      2099       547      2147      1605      1939
 -1      1474    6    0    1
 -2       901       228       252       902      2166       750      1973      1255      2204      2114
 -1      1475    6    0    1
 -2       148       254      1621       106      2038      2039      1627      1622       343      1626
 -1      1476    6    0    1
 -2       265      1015       311       328      1732      2011       794       801      1735       800
 -1      1477    6    0    1
 -2      1023       901       258      1026      1265      1974      1784      1266      1261      1972
 -1      1478    6    0    1
 -2       324       178       284      1029       558       559       426      2120      2026      2001
 -1      1479    6    0    1
 -2       185       218       184       997       598       599       527      2070      2149      2116
 -1      1480    6    0    1
 -2       215      1058       176      1030      2205      2196       545      2106      1164      2130
 -1      1481    6    0    1
 -2       229       180       228      1016       554       567       566      2061      2007      2111
 -1      1482    6    0    1
 -2      1055       990       960       295      1481      1502      1496      1854      2200      2023
 -1      1483    6    0    1
 -2       308       232       304       961       582       572       763      1717      1738      1852
 -1      1484    6    0    1
 -2        69      1003      1002       300      2206      1254      2028       444      2207      1980
 -1      1485    6    0    1
 -2       186       924       923       187      2048      1389      2046       613      2186      2208
 -1      1486    6    0    1
 -2       107      1621       982       254      1625      2015      1868       492      2039      2065
 -1      1487    6    0    1
 -2       176      1030      1058      1024      2130      1164      2196      2146      1612      1602
 -1      1488    6    0    1
 -2        24       286        25      1037       396       395        54      1135      1762      1134
 -1      1489    6    0    1
 -2      1014       264       265       263      1892       793      2030      2037       789       792
 -1      1490    6    0    1
 -2        77      1001       217      1000      2191      2190       447      2151      1174      2150
 -1      1491    6    0    1
 -2        21      1043        20       288      1122      1123        50       383      1759       384
 -1      1492    6    0    1
 -2      1046       275        19       274      1773       378      1116      2119       382       381
 -1      1493    6    0    1
 -2       969        87        86       221      2170       101      2209      2172       475       476
 -1      1494    6    0    1
 -2        17       987        16       290      1110      1111        46       371      1771       372
 -1      1495    6    0    1
 -2      1003       131         3         5      1072       872      2210      1071       146       117
 -1      1496    6    0    1
 -2      1054      1044       216      1039      1156      2211      1995      1618      1617      2182
 -1      1497    6    0    1
 -2       270      1036        23      1041      2075      1132       393      2155      1133      1128
 -1      1498    6    0    1
 -2       261      1027      1018       942      2179      1461      2145      2183      1458      1243
 -1      1499    6    0    1
 -2      1064        15       988       262      1104      1108      1109      1821       369      1867
 -1      1500    6    0    1
 -2       927       197       928       196      2117      2212      1405      2118       678      2213
 -1      1501    6    0    1
 -2        67       160      1018      1642      1652      1241      1823      1650      1653      1705
 -1      1502    6    0    1
 -2      1066       180      1022      1016      1942      1914      1596      1363      2007      1594
 -1      1503    6    0    1
 -2        19      1046        18       275      1116      1117        48       378      1773       377
 -1      1504    6    0    1
 -2       268      1032       266      1035      1832      2077       509      1812      1145      2176
 -1      1505    6    0    1
 -2      1027       256      1018      1026      2113      1701      1461      1598      2072      1597
 -1      1506    6    0    1
 -2       235      1054        30      1044      2101      1155       415      1916      1156      1149
 -1      1507    6    0    1
 -2       281      1061       981       280      2153      1082      2180       783      1950      1946
 -1      1508    6    0    1
 -2       249      1008       974       257      2215      1524      2214       746      2216      2217
 -1      1509    6    0    1
 -2       980       331       185      1017      1743       603      1934      1547      1957      2071
 -1      1510    6    0    1
 -2       266      1032        27      1035      2077      1144       405      2176      1145      1140
 -1      1511    6    0    1
 -2       270       271       272      1041       394       816       815      2155      1795      1748
 -1      1512    6    0    1
 -2       179       180       176      1022       548       543       547      1939      1914      2147
 -1      1513    6    0    1
 -2       244       245       246       939       726       739       459      1674      2218      1673
 -1      1514    6    0    1
 -2       971       213       968       182      2138      2219      1386      2140       587      2220
 -1      1515    6    0    1
 -2      1062         9        10       285      1086        39      1085      1815       348       349
 -1      1516    6    0    1
 -2       173       998       185       184      2041      1933       528       526      2115       527
 -1      1517    6    0    1
 -2       919       914       971       182      1356      1357      1358      1967      1961      2140
 -1      1518    6    0    1
 -2       912       911       910       326      1324      1323      1325      1746      1747      1767
 -1      1519    6    0    1
 -2       218       997       185      1017      2149      2070       598      2143      1585      2071
 -1      1520    6    0    1
 -2       247       944      1012      1011      2222      1472      2221      2223      1448      1381
 -1      1521    6    0    1
 -2       285        10      1060       327       349      1088      1903       353       351      1904
 -1      1522    6    0    1
 -2       247       214       202      1012       697       538       695      2221      2193      2192
 -1      1523    6    0    1
 -2       990      1055       947       174      1481      1480      1477      2224      2009      2095
 -1      1524    6    0    1
 -2      1066       304       232       961      2027       572      1941      1353      1852      1738
 -1      1525    6    0    1
 -2      1060      1062        10       285      1090      1085      1088      1903      1815       349
 -1      1526    6    0    1
 -2        69       162      1002      1003      1660      1253      2028      2206      1251      1254
 -1      1527    6    0    1
 -2       176      1024      1058      1022      2146      1602      2196      2147      1601      1603
 -1      1528    6    0    1
 -2       915      1008       914       183      1354      1355      1345      2068      2225      1833
 -1      1529    6    0    1
 -2       260       256       261      1027       786       784       430      2059      2113      2179
 -1      1530    6    0    1
 -2       916       202      1012       918      2167      2192      1369      1366      2168      1370
 -1      1531    6    0    1
 -2        15       262      1064       283       369      1821      1104       363       370      1822
 -1      1532    6    0    1
 -2       281       280       981       254       783      1946      2180       344       778      2040
 -1      1533    6    0    1
 -2      1001        78       118        77      2154       876      1172      2191        92       875
 -1      1534    6    0    1
 -2       228       902       901      1004      2204      1255      2166      2181      1259      1258
 -1      1535    6    0    1
 -2       260       259       256      1027       787       785       786      2059      2096      2113
 -1      1536    6    0    1
 -2       294       293       960       292       759      2031      2019       860       861      2084
 -1      1537    6    0    1
 -2       216      1058        31      1054      2226      1158       413      1995      1159      1154
 -1      1538    6    0    1
 -2       120      1011        79       918      1178      2227       880      1180      1182      2203
 -1      1539    6    0    1
 -2       172       990       174       292      2073      2224       513       519      2148       518
 -1      1540    6    0    1
 -2       981         8      1061       281      1077      1083      1082      2180       341      2153
 -1      1541    6    0    1
 -2       183       971       914       182      2139      1357      1833       574      2140      1961
 -1      1542    6    0    1
 -2      1001        77       118      1000      2191       875      1172      1174      2151      1075
 -1      1543    6    0    1
 -2       960      1059      1025       294      1503      1094      1100      2019      2053      2014
 -1      1544    6    0    1
 -2       260       261        34       941       430       428       429      2174      2228      1165
 -1      1545    6    0    1
 -2       932       938       931       190      1427      1426      1423      2132      2197      2133
 -1      1546    6    0    1
 -2      1062      1061      1063       279      1540      1084      1087      1846      1847      2187
 -1      1547    6    0    1
 -2       185       309       218       999       606       605       598      2142      2229      2141
 -1      1548    6    0    1
 -2       904       314       906       905      1777      1996      1276      1274      1778      1275
 -1      1549    6    0    1
 -2       982      1005       149      1620      1233      1231      1228      1696      1697      1630
 -1      1550    6    0    1
 -2       925       323       937       191      2085      1919      1311      2230       649      2135
 -1      1551    6    0    1
 -2       251      1053       256      1026      1875      1702       439      2042      1273      2072
 -1      1552    6    0    1
 -2      1021      1008       974       249      1521      1524      1523      2231      2215      2214
 -1      1553    6    0    1
 -2      1059       990      1020       292      1504      1565      1566      1908      2148      1907
 -1      1554    6    0    1
 -2       930       936       208       909      1320      2121      2144      1319      1321      2087
 -1      1555    6    0    1
 -2       937       190       938       908      2161      2197      1314      1312      2177      1313
 -1      1556    6    0    1
 -2        19      1042      1046       274      1120      1121      1116       381      2074      2119
 -1      1557    6    0    1
 -2       929       922       186       983      1390      2047      2137      1392      1288      2033
 -1      1558    6    0    1
 -2      1013       940      1057       329      1341      1455      1457      1807      2066      1758
 -1      1559    6    0    1
 -2       902       974      1004       238      1268      1271      1259      2233      2232      2234
 -1      1560    6    0    1
 -2       149       148       982      1621       154      1229      1228      1632      1627      2015
 -1      1561    6    0    1
 -2        66       255        67      1643       433       435        72      1647      2080      1648
 -1      1562    6    0    1
 -2       997       184       998       916      2116      2115      1377      1367      2092      1375
 -1      1563    6    0    1
 -2       310       185       319      1017       608       609       501      2158      2071      1956
 -1      1564    6    0    1
 -2       211       245       207       945       723       722       714      2025      2235      2236
 -1      1565    6    0    1
 -2       933       955       932       196      1416      1433      1424      2238      2237      2239
 -1      1566    6    0    1
 -2      1621       254       107       106      2039       492      1625      1626       343       112
 -1      1567    6    0    1
 -2       982       979      1005       253      1543      1545      1233      1700      1871      1699
 -1      1568    6    0    1
 -2       128        87       968       972       896      2169      1214      1212      1720      1216
 -1      1569    6    0    1
 -2       292       990       174       295      2148      2224       518       532      2200       533
 -1      1570    6    0    1
 -2       329      1057       328       209      1758      1734       734       732      1930       735
 -1      1571    6    0    1
 -2       925       191       937       908      2230      2135      1311      1309      2178      1312
 -1      1572    6    0    1
 -2       121        80       120      1011       882       879       135      1179      2240      1178
 -1      1573    6    0    1
 -2       931       194       933       932      2063      2241      1425      1423      2131      1424
 -1      1574    6    0    1
 -2       943       210       209       945      2242       729      2035      1463      2243      2003
 -1      1575    6    0    1
 -2       216       179       176      1039       549       547       550      2182      2099      2195
 -1      1576    6    0    1
 -2        11      1060        10       327      1089      1088        40       352      1904       351
 -1      1577    6    0    1
 -2       162      1003        70       163      1251      2244      1661       168      1073      1646
 -1      1578    6    0    1
 -2      1053       251       903      1026      1875      2102      1250      1273      2042      1260
 -1      1579    6    0    1
 -2       231       959       230       293      1964      2188       362       758      1965       757
 -1      1580    6    0    1
 -2       945       245       207       934      2235       722      2236      1444      2245      2246
 -1      1581    6    0    1
 -2       929       927       199       197      1407      2044      2029      2247      2117       618
 -1      1582    6    0    1
 -2      1062      1063         9       279      1087      1081      1086      1846      2187       346
 -1      1583    6    0    1
 -2      1045        18      1046       275      1113      1117      1118      1949       377      1773
 -1      1584    6    0    1
 -2       181       919       906       188      2129      1293      2056       577      2110      2134
 -1      1585    6    0    1
 -2       972       128        88       129      1212       895      2013      1213       143       898
 -1      1586    6    0    1
 -2       176       177       178      1024       542       541       540      2146      1882      1954
 -1      1587    6    0    1
 -2      1021        89       130       129      2248       900      1218      1217       897       144
 -1      1588    6    0    1
 -2       924       186       314       188      2048       616      1997      2108       611       580
 -1      1589    6    0    1
 -2       318       927       933       196      2045      1408      2123       666      2118      2238
 -1      1590    6    0    1
 -2       171        28       170      1031       407       409       410      1869      1147      2175
 -1      1591    6    0    1
 -2       255       256        67      1018       440       438       435      2081      1701      1823
 -1      1592    6    0    1
 -2       309       185       310       999       606       608       607      2229      2142      2157
 -1      1593    6    0    1
 -2       312       979       282       253      1810      1745       782       497      1871       781
 -1      1594    6    0    1
 -2       316       186       313       983       619       622       623      1899      2033      1990
 -1      1595    6    0    1
 -2       317       321       194       994       670       659       669      1992      1801      2034
 -1      1596    6    0    1
 -2       967       187       188       219      2185       612      2109      2249       624       590
 -1      1597    6    0    1
 -2       186       905       313       983      2049      1902       622      2033      1289      1990
 -1      1598    6    0    1
 -2       110         4       298       152       116       338       339      1624      1623      2250
 -1      1599    6    0    1
 -2       924       906       919       188      1285      1293      1296      2108      2134      2110
 -1      1600    6    0    1
 -2        30       171       235      1044       412       416       415      1149      2165      1916
 -1      1601    6    0    1
 -2       268       266       267      1035       509       406       803      1812      2176      1850
 -1      1602    6    0    1
 -2        16       987       988       290      1111      1112      1107       372      1771      1709
 -1      1603    6    0    1
 -2       160      1643      1018       159      1654      2079      1241       165      1649      1242
 -1      1604    6    0    1
 -2       175       202       214       948       535       538       537      2020      2194      1970
 -1      1605    6    0    1
 -2      1003        69        70       300      2206        75      2244      2207       444       334
 -1      1606    6    0    1
 -2       319      1619       310      1006      1827      1723       501      1910      1687      2251
 -1      1607    6    0    1
 -2       970        13        14       231      1102        43      1101      2097       361       360
 -1      1608    6    0    1
 -2       249       212      1008       257       745      2252      2215       746       743      2216
 -1      1609    6    0    1
 -2       194       993       317       994      2253      1979       669      2034      1432      1992
 -1      1610    6    0    1
 -2      1058       215        32      1030      2205       419      1157      1164      2106      1163
 -1      1611    6    0    1
 -2       955       933       928       196      1416      1409      1417      2237      2238      2213
 -1      1612    6    0    1
 -2      1027       941       260      1029      1459      2174      2059      1460      1167      2000
 -1      1613    6    0    1
 -2       194       195       932       190       644      2254      2131       643       645      2132
 -1      1614    6    0    1
 -2       923       197       186       187      2103       615      2046      2208       614       613
 -1      1615    6    0    1
 -2      1008       183       915       233      2225      2068      1354      2255       596      2050
 -1      1616    6    0    1
 -2       933       993       194       931      1429      2253      2241      1425      1428      2063
 -1      1617    6    0    1
 -2      1054       235       216      1044      2101       417      1995      1156      1916      2211
 -1      1618    6    0    1
 -2       957       226       224       223      1676       673      2256      1678       471       685
 -1      1619    6    0    1
 -2       196       955       932       195      2237      1433      2239       665      2257      2254
 -1      1620    6    0    1
 -2       194       196       932       195       664      2239      2131       644       665      2254
 -1      1621    6    0    1
 -2       993       194       318       933      2253       667      1726      1429      2241      2123
 -1      1622    6    0    1
 -2       204       208       243       909       698       708       707      2258      2087      2086
 -1      1623    6    0    1
 -2       925       926       950       323      1331      1399      1400      2085      1719      1718
 -1      1624    6    0    1
 -2       200       201       202       918       690       689       600      2164      2202      2168
 -1      1625    6    0    1
 -2      1056      1065      1055       330      1471      1482      1501      1968      1888      1969
 -1      1626    6    0    1
 -2       969        87       968       128      2170      2169      1215      1208       896      1214
 -1      1627    6    0    1
 -2       304       179       234      1038       562       564       565      1840      1938      1841
 -1      1628    6    0    1
 -2       261       942        34       941      2183      1169       428      2228      1170      1165
 -1      1629    6    0    1
 -2       902       228       252       238      2204       750      2114      2233       754       753
 -1      1630    6    0    1
 -2       258       256       259      1026       777       785       557      1972      2072      1971
 -1      1631    6    0    1
 -2      1641       162       903       250      1662      1249      1685      1774      2259      2055
 -1      1632    6    0    1
 -2      1055       174       990       295      2009      2224      1481      1854       533      2200
 -1      1633    6    0    1
 -2       907       204       242       243      2261       710      2260      2262       707       711
 -1      1634    6    0    1
 -2       176      1058       216      1039      2196      2226       550      2195      1607      2182
 -1      1635    6    0    1
 -2       247       246       210       944       696       740       738      2222      2263      2264
 -1      1636    6    0    1
 -2       317       194       318       993       669       667       668      1979      2253      1726
 -1      1637    6    0    1
 -2       991       199       985       927      2043      1897      1414      1412      2044      1410
 -1      1638    6    0    1
 -2       960       294       230       293      2019       359      2017      2031       759       757
 -1      1639    6    0    1
 -2       201      1012       202       918      2265      2192       689      2202      1370      2168
 -1      1640    6    0    1
 -2       159        66       255      1019      1644       433      2107      1070      1754      1927
 -1      1641    6    0    1
 -2       183       232       915       233       579      1944      2068       596       571      2050
 -1      1642    6    0    1
 -2         9       285      1062       279       348      1815      1086       346       350      1846
 -1      1643    6    0    1
 -2       202       948       175       916      2194      2020       535      2167      1372      2093
 -1      1644    6    0    1
 -2      1003        70         3       300      2244        76      2210      2207       334       335
 -1      1645    6    0    1
 -2       257      1004       974       238      2266      1271      2217       755      2234      2232
 -1      1646    6    0    1
 -2       123        82       122      1010       886       883       137      1187      1836      1186
 -1      1647    6    0    1
 -2       941       284       260      1029      2173       431      2174      1167      2001      2000
 -1      1648    6    0    1
 -2       194       931       938       190      2063      1426      2062       643      2133      2197
 -1      1649    6    0    1
 -2       215        32        31      1058       419        61       418      2205      1157      1158
 -1      1650    6    0    1
 -2       933       932       194       196      1424      2131      2241      2238      2239       664
 -1      1651    6    0    1
 -2      1004       974      1008       257      1271      1524      1361      2266      2217      2216
 -1      1652    6    0    1
 -2       162        69        70      1003      1660        75      1661      1251      2206      2244
 -1      1653    6    0    1
 -2       211       209       210       945       727       729       728      2025      2003      2243
 -1      1654    6    0    1
 -2       312      1005       979       253      1776      1545      1810       497      1699      1871
 -1      1655    6    0    1
 -2       925       910       926       203      1330      1332      1331      2267      1959      2067
 -1      1656    6    0    1
 -2       989       172       173       189      1993       515      2184      2002       517       516
 -1      1657    6    0    1
 -2       936       945       207       934      1443      2236      2268      1441      1444      2246
 -1      1658    6    0    1
 -2       955       195       196       224      2257       665      2237      2269       671       672
 -1      1659    6    0    1
 -2       982      1620       149       107      1696      1630      1228      1868      1629      1631
 -1      1660    6    0    1
 -2        80       246        79      1011       452       453        94      2240      2270      2227
 -1      1661    6    0    1
 -2        81       121       122       939       881       136       884      1691      1183      1184
 -1      1662    6    0    1
 -2       937       193       938       190      1921      1947      1314      2161       639      2197
 -1      1663    6    0    1
 -2       908       192       190       952      2271       635      2177      1316      2272      2198
 -1      1664    6    0    1
 -2       968       967       919       219      1384      1383      1385      2273      2249      2274
 -1      1665    6    0    1
 -2       188       181       919       182       577      2129      2110       576       575      1967
 -1      1666    6    0    1
 -2        68       903       251       250      2054      2102       436       441      2055       443
 -1      1667    6    0    1
 -2       919       182       968       219      1967      2220      1385      2274       589      2273
 -1      1668    6    0    1
 -2       215        31       216      1058       418       413       420      2205      1158      2226
 -1      1669    6    0    1
 -2       243      1009       936       935      2089      1322      2122      2275      1449      1440
 -1      1670    6    0    1
 -2       929       928       927       197      1406      1405      1407      2247      2212      2117
 -1      1671    6    0    1
 -2       243       244       242       935       724       462       711      2275      2276      2277
 -1      1672    6    0    1
 -2       310      1006       999      1017      2251      1590      2157      2158      1591      1588
 -1      1673    6    0    1
 -2      1003         3        70       163      2210        76      2244      1073      1645      1646
 -1      1674    6    0    1
 -2       227       952       946       954      2279      1317      2278      2094      1474      1473
 -1      1675    6    0    1
 -2       209       210       943       214       729      2242      2035       731       730      1890
 -1      1676    6    0    1
 -2       905       186       922       983      2049      2047      1286      1289      2033      1288
 -1      1677    6    0    1
 -2         8       981         7       281      1077      1078        37       341      2180       340
 -1      1678    6    0    1
 -2       930       208       203       909      2144       699      1958      1319      2087      2280
 -1      1679    6    0    1
 -2       972        88       128        87      2013       895      1212      1720       102       896
 -1      1680    6    0    1
 -2       912       930       940       206      1328      1340      1339      1886      1887      2032
 -1      1681    6    0    1
 -2       934       245       207       935      2245       722      2246      1439      2281      2282
 -1      1682    6    0    1
 -2       929       964       928       197      1394      1415      1406      2247      2283      2212
 -1      1683    6    0    1
 -2       319      1006       310      1017      1910      2251       501      1956      1591      2158
 -1      1684    6    0    1
 -2       938       190       932       952      2197      2132      1427      1315      2198      1434
 -1      1685    6    0    1
 -2       964       929       923       197      1394      1391      1395      2283      2247      2103
 -1      1686    6    0    1
 -2       202       175       184       916       535       525       536      2167      2093      2092
 -1      1687    6    0    1
 -2       127        87        86       969       893       101       894      1207      2170      2209
 -1      1688    6    0    1
 -2       909       243       204      1009      2086       707      2258      1303      2089      2284
 -1      1689    6    0    1
 -2      1045        17        18       291      1114        47      1113      1991       375       374
 -1      1690    6    0    1
 -2       204       907       909      1009      2261      1300      2258      2284      1304      1303
 -1      1691    6    0    1
 -2      1004       257       228       238      2266       752      2181      2234       755       754
 -1      1692    6    0    1
 -2       186       922       929       197      2047      1390      2137       615      2104      2247
 -1      1693    6    0    1
 -2       237       204       242       907       655       710       709      2285      2261      2260
 -1      1694    6    0    1
 -2       310      1006       151      1000      2251      1234      2286      2287      1240      1239
 -1      1695    6    0    1
 -2       959        12        13       230      1097        42      1096      2188       358       357
 -1      1696    6    0    1
 -2       934       207       936       935      2246      2268      1441      1439      2282      1440
 -1      1697    6    0    1
 -2      1044       235       216      1039      1916       417      2211      1617      2098      2182
 -1      1698    6    0    1
 -2       990      1059       960       292      1504      1503      1502      2148      1908      2084
 -1      1699    6    0    1
 -2       971       968       919       182      1386      1385      1358      2140      2220      1967
 -1      1700    6    0    1
 -2       994       194       993       931      2034      2253      1432      1430      2063      1428
 -1      1701    6    0    1
 -2       925       909       191       908      1310      2288      2230      1309      1299      2178
 -1      1702    6    0    1
 -2       929       199       186       197      2029       617      2137      2247       618       615
 -1      1703    6    0    1
 -2       194       938       193       190      2062      1947       642       643      2197       639
 -1      1704    6    0    1
 -2       207       208       206       936       712       701       713      2268      2121      2136
 -1      1705    6    0    1
 -2       902       240       974       238      2290      2289      1268      2233       766      2232
 -1      1706    6    0    1
 -2       204       908       909       907      2291      1299      2258      2261      1298      1300
 -1      1707    6    0    1
 -2       929       985       199       927      1411      1897      2029      1407      1410      2044
 -1      1708    6    0    1
 -2       974       239       249       257      2292       490      2214      2217       769       746
 -1      1709    6    0    1
 -2       239       257       974       238       769      2217      2292       768       755      2232
 -1      1710    6    0    1
 -2       971       914      1008       183      1357      1355      1359      2139      1833      2225
 -1      1711    6    0    1
 -2       245       211       210       945       723       728       737      2235      2025      2243
 -1      1712    6    0    1
 -2        78       921       205      1001      2294      2293       450      2154      1177      2295
 -1      1713    6    0    1
 -2       253       107       982       254       496      1868      1700       495       492      2065
 -1      1714    6    0    1
 -2       930       910       925       203      1329      1330      1318      1958      1959      2267
 -1      1715    6    0    1
 -2       971       212       213       183      2296       594      2138      2139       595       588
 -1      1716    6    0    1
 -2      1008       915      1004       233      1354      1360      1361      2255      2050      2189
 -1      1717    6    0    1
 -2       203       208       204       909       699       698       653      2280      2087      2258
 -1      1718    6    0    1
 -2        79       120        80      1011       880       879        94      2227      1178      2240
 -1      1719    6    0    1
 -2       127        86       126       966       894       892       141      1203      1684      1202
 -1      1720    6    0    1
 -2       251       903       252       250      2102      1978       775       443      2055       772
 -1      1721    6    0    1
 -2       996       938       937       193      1452      1314      1451      1799      1947      1921
 -1      1722    6    0    1
 -2      1064        14        15       283      1105        44      1104      1822       364       363
 -1      1723    6    0    1
 -2        13       970       959       231      1102      1103      1096       361      2097      1964
 -1      1724    6    0    1
 -2       926       323       925       203      1719      2085      1331      2067       654      2267
 -1      1725    6    0    1
 -2       298       151       110       152      2297      1638       339      2250       157      1624
 -1      1726    6    0    1
 -2       214       948      1012       944      1970      1376      2193      2298      1465      1472
 -1      1727    6    0    1
 -2       923       929       922       197      1391      1390      1388      2103      2247      2104
 -1      1728    6    0    1
 -2       313       186       314       905       622       616       621      1902      2049      1778
 -1      1729    6    0    1
 -2       960       230       959       293      2017      2188      1099      2031       757      1965
 -1      1730    6    0    1
 -2       942       261      1027       941      2183      2179      1458      1170      2228      1459
 -1      1731    6    0    1
 -2       170      1032      1033      1031      1781      1615      1878      2175      1148      1152
 -1      1732    6    0    1
 -2       181       906       314       188      2056      1996       581       577      2134       580
 -1      1733    6    0    1
 -2       245       945       210       934      2235      2243       737      2245      1444      2299
 -1      1734    6    0    1
 -2       966        86       126        85      1684       892      1202      1680       100       890
 -1      1735    6    0    1
 -2      1012       948       202       916      1376      2194      2192      1369      1372      2167
 -1      1736    6    0    1
 -2        16       290       988       262       372      1709      1107       368       373      1867
 -1      1737    6    0    1
 -2       261       255        35       942       434       432       427      2183      2082      1168
 -1      1738    6    0    1
 -2       109       110       298       151       115       339       503      1639      1638      2297
 -1      1739    6    0    1
 -2       923       924       967       187      1389      1382      1393      2208      2186      2185
 -1      1740    6    0    1
 -2       228       257      1004       233       752      2266      2181       568       744      2189
 -1      1741    6    0    1
 -2       331       319      1007       312       610      1825      1877       852       502      1932
 -1      1742    6    0    1
 -2       251       256       258      1026       439       777       776      2042      2072      1972
 -1      1743    6    0    1
 -2       191       237       192       908       648       647       636      2178      2300      2271
 -1      1744    6    0    1
 -2       918       205        79       921      2201       449      2203      1181      2293      2301
 -1      1745    6    0    1
 -2       171        30        29      1044       412        59       408      2165      1149      1150
 -1      1746    6    0    1
 -2       988        15        16       262      1108        45      1107      1867       369       368
 -1      1747    6    0    1
 -2       999       218       997      1001      2141      2149      1586      1587      2302      1380
 -1      1748    6    0    1
 -2       949       123        83       124      1191       885      1666      1192       138       889
 -1      1749    6    0    1
 -2       192       236       227       946       657       656       640      2303      2199      2278
 -1      1750    6    0    1
 -2         3      1003         5       163      2210      1071       117      1645      1073       169
 -1      1751    6    0    1
 -2      1643        66       255       159      1647       433      2080      1649      1644      2107
 -1      1752    6    0    1
 -2       191       203       204       909       651       653       652      2288      2280      2258
 -1      1753    6    0    1
 -2       121        81        80       939       881        95       882      1183      1691      1675
 -1      1754    6    0    1
 -2       284       941        33      1029      2173      1166       425      2001      1167      1160
 -1      1755    6    0    1
 -2       178       324       215      1030       558       423       546      2060      2105      2106
 -1      1756    6    0    1
 -2       902       975       974       240      1270      1269      1268      2290      2304      2289
 -1      1757    6    0    1
 -2       175      1065       947       948      1951      1475      2090      2020      1468      1373
 -1      1758    6    0    1
 -2       903       902       252       250      1256      2114      1978      2055      2305       772
 -1      1759    6    0    1
 -2       203       930       206       208      1958      1887       700       699      2144       701
 -1      1760    6    0    1
 -2       261        35        34       942       427        64       428      2183      1168      1169
 -1      1761    6    0    1
 -2       214      1012       247       944      2193      2221       697      2298      1472      2222
 -1      1762    6    0    1
 -2       192       190       191       908       635       637       636      2271      2177      2178
 -1      1763    6    0    1
 -2      1008       212       971       183      2252      2296      1359      2225       595      2139
 -1      1764    6    0    1
 -2        81       122        82      1010       884       883        96      1837      1186      1836
 -1      1765    6    0    1
 -2        79       205        78       921       449       450        93      2301      2293      2294
 -1      1766    6    0    1
 -2        68       161       903      1641      1657      1248      2054      1655      1658      1685
 -1      1767    6    0    1
 -2       248       213       973       212       742      2306      2127       741       594      2128
 -1      1768    6    0    1
 -2      1025        11        12       294      1092        41      1091      2014       355       354
 -1      1769    6    0    1
 -2       243       936       207       935      2122      2268       721      2275      1440      2282
 -1      1770    6    0    1
 -2       921        78       119      1001      2294       878      1175      1177      2154      1173
 -1      1771    6    0    1
 -2       161       251       903      1053      2307      2102      1248      1246      1875      1250
 -1      1772    6    0    1
 -2        87       127       128       969       893       142       896      2170      1207      1208
 -1      1773    6    0    1
 -2       954        83       125       124      1669       888      1195      1194       889       139
 -1      1774    6    0    1
 -2       176       215       216      1058       545       420       550      2196      2205      2226
 -1      1775    6    0    1
 -2       244       207       245       935       725       722       726      2276      2282      2281
 -1      1776    6    0    1
 -2       973      1008      1021       249      1520      1521      1221      2126      2215      2231
 -1      1777    6    0    1
 -2      1004       228       902       238      2181      2204      1259      2234       754      2233
 -1      1778    6    0    1
 -2       207       244       243       935       725       724       721      2282      2276      2275
 -1      1779    6    0    1
 -2       200       917       205       918      2162      2308       691      2164      1365      2201
 -1      1780    6    0    1
 -2       310       298       309      1000       504       748       607      2287      2152      2309
 -1      1781    6    0    1
 -2       228       252       229       901       750       751       566      2166      1973      2036
 -1      1782    6    0    1
 -2       205       200       217       917       691       692       451      2308      2162      2310
 -1      1783    6    0    1
 -2       266       268       170      1032       509       510       411      2077      1832      1781
 -1      1784    6    0    1
 -2       203       925       930       909      2267      1318      1958      2280      1310      1319
 -1      1785    6    0    1
 -2        90        89       130       241       104       900       899       486       487      1682
 -1      1786    6    0    1
 -2       246       944       247      1011      2263      2222       696      2270      1448      2223
 -1      1787    6    0    1
 -2       903       162      1002       250      1249      1253      1252      2055      2259      1982
 -1      1788    6    0    1
 -2        78       205       217      1001       450       451       446      2154      2295      2190
 -1      1789    6    0    1
 -2       183      1008       212       233      2225      2252       595       596      2255       597
 -1      1790    6    0    1
 -2       236       237       242       907       658       709       465      2311      2285      2260
 -1      1791    6    0    1
 -2       246       934       944      1011      2312      1447      2263      2270      1445      1448
 -1      1792    6    0    1
 -2       934       246       245       939      2312       739      2245      1442      1673      2218
 -1      1793    6    0    1
 -2       203       191       925       909       651      2230      2267      2280      2288      1310
 -1      1794    6    0    1
 -2       237       908       204       907      2300      2291       655      2285      1298      2261
 -1      1795    6    0    1
 -2       907       204       243      1009      2261       707      2262      1304      2284      2089
 -1      1796    6    0    1
 -2       217       309       298      1000       747       748       448      2150      2309      2152
 -1      1797    6    0    1
 -2       309      1001       999      1000      2313      1587      2229      2309      1174      1589
 -1      1798    6    0    1
 -2        28       171        29      1031       407       408        58      1147      1869      1146
 -1      1799    6    0    1
 -2       224       953       195       226      2315      2314       671       673      1988       674
 -1      1800    6    0    1
 -2       219       965       187       220      2317      2316       624       627      1985       628
 -1      1801    6    0    1
 -2       921        79       119        78      2301       877      1175      2294        93       878
 -1      1802    6    0    1
 -2       125       126        84       957       140       891       887      1197      1198      1677
 -1      1803    6    0    1
 -2       184       997       200       916      2116      2318       601      2092      1367      2163
 -1      1804    6    0    1
 -2       928       196       197       198      2213       678      2212      2319       677       676
 -1      1805    6    0    1
 -2       997       218       917      1001      2149      2320      1368      1380      2302      1379
 -1      1806    6    0    1
 -2       907       242       236       949      2260       465      2311      1305      1664      1665
 -1      1807    6    0    1
 -2       237       191       204       908       648       652       655      2300      2178      2291
 -1      1808    6    0    1
 -2       170      1033       171      1031      1878      1870       410      2175      1152      1869
 -1      1809    6    0    1
 -2       943       948       214       944      1464      1970      1890      1462      1465      2298
 -1      1810    6    0    1
 -2       222       187       965       220       625      2316      2321       629       628      1985
 -1      1811    6    0    1
 -2       226       953       195       227      1988      2314       674       675      2322       646
 -1      1812    6    0    1
 -2       238      1002       240       250      2323      1981       766       771      1982       770
 -1      1813    6    0    1
 -2       974       240       239       238      2289       767      2292      2232       766       768
 -1      1814    6    0    1
 -2       237       946       908       907      2324      1302      2300      2285      1301      1298
 -1      1815    6    0    1
 -2       928       956       955       198      1419      1418      1417      2319      2325      2326
 -1      1816    6    0    1
 -2      1018        67      1643       160      1823      1648      2079      1241      1652      1654
 -1      1817    6    0    1
 -2        86       220       969       221       472      1984      2209       476       477      2172
 -1      1818    6    0    1
 -2       200       997       917       916      2318      1368      2162      2163      1367      1364
 -1      1819    6    0    1
 -2      1054       216      1058      1039      1995      2226      1159      1618      2182      1607
 -1      1820    6    0    1
 -2        84       126        85       957       891       890        99      1677      1198      1692
 -1      1821    6    0    1
 -2       989       947       998       173      1476      1374      1479      2184      2159      2041
 -1      1822    6    0    1
 -2       130       131        90       241       145       873       899      1682      1683       486
 -1      1823    6    0    1
 -2       956       928       964       198      1419      1415      1420      2325      2319      2327
 -1      1824    6    0    1
 -2       968       969       967       219      1215      1514      1384      2273      2328      2249
 -1      1825    6    0    1
 -2      1021       249       974       239      2231      2214      1523      2329       490      2292
 -1      1826    6    0    1
 -2       236       192       237       946       657       647       658      2199      2303      2324
 -1      1827    6    0    1
 -2       902       903      1002       250      1256      1252      1267      2305      2055      1982
 -1      1828    6    0    1
 -2       120       918        79       921      1180      2203       880      1176      1181      2301
 -1      1829    6    0    1
 -2      1004       257      1008       233      2266      2216      1361      2189       744      2255
 -1      1830    6    0    1
 -2       181       906       920       963      2056      1295      2005      1925      1279      1297
 -1      1831    6    0    1
 -2       210       945       944       934      2243      1446      2264      2299      1444      1447
 -1      1832    6    0    1
 -2       944       210       943       945      2264      2242      1462      1446      2243      1463
 -1      1833    6    0    1
 -2       151       152       298      1000       157      2250      2297      1239      1076      2152
 -1      1834    6    0    1
 -2       318       933       194       196      2123      2241       667       666      2238       664
 -1      1835    6    0    1
 -2       949        83       123        82      1666       885      1191      1663        97       886
 -1      1836    6    0    1
 -2      1053        68       251      1642      2330       436      1875      1704      1651      1876
 -1      1837    6    0    1
 -2       195       190       227       952       645       641       646      2331      2198      2279
 -1      1838    6    0    1
 -2       187       964       197       222      2332      2283       614       625      2333       626
 -1      1839    6    0    1
 -2       921       119        79       120      1175       877      2301      1176       134       880
 -1      1840    6    0    1
 -2       242       907       243      1009      2260      2262       711      2334      1304      2089
 -1      1841    6    0    1
 -2       947       175       173       174      2090       524      2159      2095       523       514
 -1      1842    6    0    1
 -2       909       204       191       908      2258       652      2288      1299      2291      2178
 -1      1843    6    0    1
 -2       999       309       218      1001      2229       605      2141      1587      2313      2302
 -1      1844    6    0    1
 -2      1008       249       973       212      2215      2126      1520      2252       745      2128
 -1      1845    6    0    1
 -2       949        82       123      1010      1663       886      1191      1193      1836      1187
 -1      1846    6    0    1
 -2       260      1027       261       941      2059      2179       430      2174      1459      2228
 -1      1847    6    0    1
 -2       975       977       974       239      1226      1522      1269      2335      1672      2292
 -1      1848    6    0    1
 -2        68      1053       161      1642      2330      1246      1657      1651      1704      1659
 -1      1849    6    0    1
 -2       959       230        13       231      2188       357      1096      1964       362       361
 -1      1850    6    0    1
 -2       954       125        83        84      1195       888      1669      1686       887        98
 -1      1851    6    0    1
 -2       242       949       907      1010      1664      1305      2260      1835      1193      1307
 -1      1852    6    0    1
 -2        33       324       284      1029       421       426       425      1160      2120      2001
 -1      1853    6    0    1
 -2       967       965       923       187      1398      1397      1393      2185      2316      2208
 -1      1854    6    0    1
 -2       953       952       227       954      1435      2279      2322      1200      1474      2094
 -1      1855    6    0    1
 -2       968       182       213       225      2220       587      2219      2336       592       591
 -1      1856    6    0    1
 -2       946       192       908       952      2303      2271      1302      1317      2272      1316
 -1      1857    6    0    1
 -2       159         2        66      1019       164        71      1644      1070      1069      1754
 -1      1858    6    0    1
 -2       218       200       184       997       602       601       599      2149      2318      2116
 -1      1859    6    0    1
 -2       925       203       323       191      2267       654      2085      2230       651       649
 -1      1860    6    0    1
 -2       227       190       192       952       641       635       640      2279      2198      2272
 -1      1861    6    0    1
 -2       198       197       964       222       676      2283      2327       682       626      2333
 -1      1862    6    0    1
 -2       184       200       202       916       601       600       536      2092      2163      2167
 -1      1863    6    0    1
 -2       149      1621       982       107      1632      2015      1228      1631      1625      1868
 -1      1864    6    0    1
 -2       213       971       973       212      2138      1519      2306       594      2296      2128
 -1      1865    6    0    1
 -2       932       195       953       952      2254      2314      1436      1434      2331      1435
 -1      1866    6    0    1
 -2       923       965       964       187      1397      1396      1395      2208      2316      2332
 -1      1867    6    0    1
 -2       943       214       210       944      1890       730      2242      1462      2298      2264
 -1      1868    6    0    1
 -2       968       219       182       225      2273       589      2220      2336       593       592
 -1      1869    6    0    1
 -2       200       205       201       918       691       454       690      2164      2201      2202
 -1      1870    6    0    1
 -2       953       932       955       195      1436      1433      1437      2314      2254      2257
 -1      1871    6    0    1
 -2        83       949       124       954      1666      1192       889      1669      1196      1194
 -1      1872    6    0    1
 -2       935       244       242      1010      2276       462      2277      1190      1896      1835
 -1      1873    6    0    1
 -2       202       201       247      1012       689       694       695      2192      2265      2221
 -1      1874    6    0    1
 -2       946       236       227       954      2199       656      2278      1473      1667      2094
 -1      1875    6    0    1
 -2       197       964       928       198      2283      1415      2212       676      2327      2319
 -1      1876    6    0    1
 -2        82       949       242      1010      1663      1664       460      1836      1193      1835
 -1      1877    6    0    1
 -2       971       248       972       213      2337      1721      1515      2138       742      2338
 -1      1878    6    0    1
 -2       965       966       964       222      1210      1491      1396      2321      2156      2333
 -1      1879    6    0    1
 -2       251       161        68      1053      2307      1657       436      1875      1246      2330
 -1      1880    6    0    1
 -2       127       969        86       220      1207      2209       894      1983      1984       472
 -1      1881    6    0    1
 -2       247       210       214       944       738       730       697      2222      2264      2298
 -1      1882    6    0    1
 -2       224       957       953       226      2256      1201      2315       673      1676      1988
 -1      1883    6    0    1
 -2      1002       975       902       240      1272      1270      1267      1981      2304      2290
 -1      1884    6    0    1
 -2       190       195       932       952       645      2254      2132      2198      2331      1434
 -1      1885    6    0    1
 -2       964       197       923       187      2283      2103      1395      2332       614      2208
 -1      1886    6    0    1
 -2      1008       257       212       233      2216       743      2252      2255       744       597
 -1      1887    6    0    1
 -2       964       187       965       222      2332      2316      1396      2333       625      2321
 -1      1888    6    0    1
 -2       227       953       195       952      2322      2314       646      2279      1435      2331
 -1      1889    6    0    1
 -2       964       966       956       222      1491      1206      1420      2333      2156      2339
 -1      1890    6    0    1
 -2      1002       240       902       238      1981      2290      1267      2323       766      2233
 -1      1891    6    0    1
 -2       251       903        68       161      2102      2054       436      2307      1248      1657
 -1      1892    6    0    1
 -2       243       208       207       936       708       712       721      2122      2121      2268
 -1      1893    6    0    1
 -2       218       217       200       917       693       692       602      2320      2310      2162
 -1      1894    6    0    1
 -2       971       972       968       213      1515      1216      1386      2138      2338      2219
 -1      1895    6    0    1
 -2      1011        80       246       939      2240       452      2270      1185      1675      1673
 -1      1896    6    0    1
 -2       974       977      1021       239      1522      1224      1523      2292      1672      2329
 -1      1897    6    0    1
 -2       908       237       192       946      2300       647      2271      1302      2324      2303
 -1      1898    6    0    1
 -2       238       252       902       250       753      2114      2233       771       772      2305
 -1      1899    6    0    1
 -2       969       219       968       221      2328      2273      1215      2172       749      2171
 -1      1900    6    0    1
 -2        80      1011       121       939      2240      1179       882      1675      1185      1183
 -1      1901    6    0    1
 -2       967       969       965       219      1514      1211      1398      2249      2328      2317
 -1      1902    6    0    1
 -2       956       222       966       223      2339      2156      1206      1987       683      1679
 -1      1903    6    0    1
 -2       907       236       946       949      2311      2199      1301      1305      1665      1306
 -1      1904    6    0    1
 -2       242      1009       243       935      2334      2089       711      2277      1449      2275
 -1      1905    6    0    1
 -2       927       928       933       196      1405      1409      1408      2118      2213      2238
 -1      1906    6    0    1
 -2       236       949        83       954      1665      1666       463      1667      1196      1669
 -1      1907    6    0    1
 -2       217      1001       309      1000      2190      2313       747      2150      1174      2309
 -1      1908    6    0    1
 -2        69       162      1641       250      1660      1662      1656       442      2259      1774
 -1      1909    6    0    1
 -2       198       222       956       223       682      2339      2325       684       683      1987
 -1      1910    6    0    1
 -2        86       966       127       220      1684      1203       894       472      1681      1983
 -1      1911    6    0    1
 -2       300       241       975       240       491      2340      2341       774       773      2304
 -1      1912    6    0    1
 -2       955       956       957       224      1418      1205      1490      2269      2342      2256
 -1      1913    6    0    1
 -2       953       955       957       224      1437      1490      1201      2315      2269      2256
 -1      1914    6    0    1
 -2       217       218       309      1001       693       605       747      2190      2302      2313
 -1      1915    6    0    1
 -2       957        84       125       226      1677       887      1197      1676       466      1989
 -1      1916    6    0    1
 -2       126       966        85       223      1202      1680       890      1986      1679       469
 -1      1917    6    0    1
 -2       934      1011       246       939      1445      2270      2312      1442      1185      1673
 -1      1918    6    0    1
 -2      1008       973       971       212      1520      1519      1359      2252      2128      2296
 -1      1919    6    0    1
 -2       226        84       125       954       466       887      1989      1668      1686      1195
 -1      1920    6    0    1
 -2       953       227       226       954      2322       675      1988      1200      2094      1668
 -1      1921    6    0    1
 -2       965       220       219       221      1985       627      2317      2343       477       749
 -1      1922    6    0    1
 -2       225       968       219       221      2336      2273       593       480      2171       749
 -1      1923    6    0    1
 -2       965       219       969       221      2317      2328      1211      2343       749      2172
 -1      1924    6    0    1
 -2       245       934       244       935      2245      2344       726      2281      1439      2276
 -1      1925    6    0    1
 -2       244       934       245       939      2344      2245       726      1674      1442      2218
 -1      1926    6    0    1
 -2       217       917       218      1001      2310      2320       693      2190      1379      2302
 -1      1927    6    0    1
 -2       205       921       917      1001      2293      1378      2308      2295      1177      1379
 -1      1928    6    0    1
 -2       965       187       967       219      2316      2185      1398      2317       624      2249
 -1      1929    6    0    1
 -2       130      1021       977        89      1218      1224      1222       900      2248      1670
 -1      1930    6    0    1
 -2       224       955       956       198      2269      1418      2342       680      2326      2325
 -1      1931    6    0    1
 -2       236       946       237       907      2199      2324       658      2311      1301      2285
 -1      1932    6    0    1
 -2      1009       242       907      1010      2334      2260      1304      1308      1835      1307
 -1      1933    6    0    1
 -2       248       971       973       213      2337      1519      2127       742      2138      2306
 -1      1934    6    0    1
 -2        85       957       126       223      1692      1198       890       469      1678      1986
 -1      1935    6    0    1
 -2       205       918       917       921      2201      1365      2308      2293      1181      1378
 -1      1936    6    0    1
 -2       198       956       224       223      2325      2342       680       684      1987       685
 -1      1937    6    0    1
 -2      1009       935       242      1010      1449      2277      2334      1308      1190      1835
 -1      1938    6    0    1
 -2       953       195       955       224      2314      2257      1437      2315       671      2269
 -1      1939    6    0    1
 -2       966       222       965       220      2156      2321      1210      1681       629      1985
 -1      1940    6    0    1
 -2      1002       238       902       250      2323      2233      1267      1982       771      2305
 -1      1941    6    0    1
 -2       162        69      1002       250      1660      2028      1253      2259       442      1982
 -1      1942    6    0    1
 -2       205       917       217      1001      2308      2310       451      2295      1379      2190
 -1      1943    6    0    1
 -2       192       946       227       952      2303      2278       640      2272      1317      2279
 -1      1944    6    0    1
 -2       218       917       200       997      2320      2162       602      2149      1368      2318
 -1      1945    6    0    1
 -2       300       975      1002       240      2341      1272      1980       774      2304      1981
 -1      1946    6    0    1
 -2       971       973       972       248      1519      1220      1515      2337      2127      1721
 -1      1947    6    0    1
 -2       956       198       964       222      2325      2327      1420      2339       682      2333
 -1      1948    6    0    1
 -2       151       310      1619      1006      2286      1723      1640      1234      2251      1687
 -1      1949    6    0    1
 -2      1619       109       310       151      1633       499      1723      1640      1639      2286
 -1      1950    6    0    1
 -2       239       975       241       240      2335      2340       488       767      2304       773
 -1      1951    6    0    1
 -2       224       956       957       223      2342      1205      2256       685      1987      1678
 -1      1952    6    0    1
 -2      1002      1003       975       300      1254      1227      1272      1980      2207      2341
 -1      1953    6    0    1
 -2       934       939       244       935      1442      1674      2344      1439      1189      2276
 -1      1954    6    0    1
 -2       239       974       975       240      2292      1269      2335       767      2289      2304
 -1      1955    6    0    1
 -2       130        89       977       241       900      1670      1222      1682       487      1671
 -1      1956    6    0    1
 -2       975       241       977       239      2340      1671      1226      2335       488      1672
 -1      1957    6    0    1
 -2       969       220       965       221      1984      1985      1211      2172       477      2343
 -1      1958    6    0    1
 -2       975       131       977       241      1225      1223      1226      2340      1683      1671
 -1      1959    6    0    1
 -2       279      1061         8       281      1847      1083       345       347      2153       341
 -1      1960    6    0    1
 -2         8      1061       279      1063      1083      1847       345      1080      1084      2187
 -1      1961    6    0    1
 -2      1021       239        89       249      2329       489      2248      2231       490       483
 -1      1962    6    0    1
 -2        89       239      1021       977       489      2329      2248      1670      1672      1224
 -1      1963    6    0    1
 -2       254       280       982       253       778      1872      2065       495       779      1700
 -1      1964    6    0    1
 -2       982       280       254       981      1872       778      2065      1230      1946      2040
 -1      1965    6    0    1
 -2       989       189       998       980      2002      1936      1479      1534      1935      1546
 -1      1966    6    0    1
 -2       998       189       989       173      1936      2002      1479      2041       516      2184
 -1      1967    6    0    1
 -2       990       947       172       174      1477      2160      2073      2224      2095       513
 -1      1968    6    0    1
 -2       947       990       172       989      1477      2073      2160      1476      1478      1993
 -1      1969    6    0    1
 -2       173       184       947       998       526      2091      2159      2041      2115      1374
 -1      1970    6    0    1
 -2       947       184       173       175      2091       526      2159      2090       525       524
 -1      1971    6    0    1
 -2       225       968        87       972      2336      2169       481      1722      1216      1720
 -1      1972    6    0    1
 -2        87       968       225       221      2169      2336       481       475      2171       480
 -1      1973    6    0    1
 -2       314       181       904       906       581      1926      1777      1996      2056      1276
 -1      1974    6    0    1
 -2       181       314       904       307       581      1777      1926       585       586      1714
 -1      1975    6    0    1
 -2       312       150       319      1007      2345      1824       502      1932      1236      1825
 -1      1976    6    0    1
 -2       150       312       319       108      2345       502      1824      1636       493       500
 -1      1977    6    0    1
 -2       150       312      1005      1007      2345      1776      1232      1236      1932      1237
 -1      1978    6    0    1
 -2       312       150      1005       108      2345      1232      1776       493      1636      1912
 -1      1979    6    0    1
 -2         6        77      1000       118       874      2151      1074       132       875      1075
 -1      1980    6    0    1
 -2      1000         4       152       298      2346      1623      1076      2152       338      2250
 -1      1981    6    0    1
 -2         4      1000       152         6      2346      1076      1623       147      1074       158
 -1      1982    6    0    1
 -2         4      1000        77       298      2346      2151        91       338      2152       337
 -1      1983    6    0    1
 -2      1000         4        77         6      2346        91      2151      1074       147       874
 -1      1984    6    0    1
 -2       310       298       151       109       504      2297      2286       499       503      1639
 -1      1985    6    0    1
 -2       151       298       310      1000      2297       504      2286      1239      2152      2287
 -1      1986    6    0    1
 -2         3      1003        90       131      2210      2347       105       872      1072       873
 -1      1987    6    0    1
 -2        90      1003         3       300      2347      2210       105       336      2207       335
 -1      1988    6    0    1
 -2      1003       975       241       131      1227      2340      2348      1072      1225      1683
 -1      1989    6    0    1
 -2       241       975      1003       300      2340      1227      2348       491      2341      2207
 -1      1990    6    0    1
 -2      1003       241        90       131      2348       486      2347      1072      1683       873
 -1      1991    6    0    1
 -2        90       241      1003       300       486      2348      2347       336       491      2207
 -1      1992    6    0    1
 -2       201       918      1011      1012      2202      1182      2349      2265      1370      1381
 -1      1993    6    0    1
 -2      1011       247       201      1012      2223       694      2349      1381      2221      2265
 -1      1994    6    0    1
 -2       201       247      1011       246       694      2223      2349       456       696      2270
 -1      1995    6    0    1
 -2       188       219       919       967       590      2274      2110      2109      2249      1383
 -1      1996    6    0    1
 -2       919       219       188       182      2274       590      2110      1967       589       576
 -1      1997    6    0    1
 -2       940       945       207       936      1450      2236      2350      1422      1443      2268
 -1      1998    6    0    1
 -2       207       945       940       211      2236      1450      2350       714      2025      2112
 -1      1999    6    0    1
 -2       207       206       940       936       713      2032      2350      2268      2136      1422
 -1      2000    6    0    1
 -2       940       206       207       211      2032       713      2350      2112       715       714
 -1      2001    6    0    1
 -2       196       198       955       224       677      2326      2237       672       680      2269
 -1      2002    6    0    1
 -2       955       198       196       928      2326       677      2237      1417      2319      2213
 -1      2003    6    0    1
 -2       246       934       210       944      2312      2299       740      2263      1447      2264
 -1      2004    6    0    1
 -2       210       934       246       245      2299      2312       740       737      2245       739
 -1      2005    6    0    1
 -2       935       939        81       122      1189      1691      2351      1188      1184       884
 -1      2006    6    0    1
 -2        81       939       935       244      1691      1189      2351       457      1674      2276
 -1      2007    6    0    1
 -2        81      1010       935       122      1837      1190      2351       884      1186      1188
 -1      2008    6    0    1
 -2       935      1010        81       244      1190      1837      2351      2276      1896       457
 -1      2009    6    0    1
 -2       225       972       213       968      1722      2338       591      2336      1216      2219
 -1      2010    6    0    1
 -2       972       225       213       248      1722       591      2338      1721       482       742
 -1      2011    6    0    1
 -2      1000       310       999       309      2287      2157      1589      2309       607      2229
 -1      2012    6    0    1
 -2       999       310      1000      1006      2157      2287      1589      1590      2251      1240
 -1      2013    6    0    1
 -2      1021        89        88       249      2248       103      2352      2231       483       484
 -1      2014    6    0    1
 -2        89      1021        88       129      2248      2352       103       897      1217       898
 -1      2015    6    0    1
 -2      1021        88       973       249      2352      2353      1221      2231       484      2126
 -1      2016    6    0    1
 -2        88      1021       973       129      2352      1221      2353       898      1217      1219
 -1      2017    6    0    1
 -2        88       973       972       129      2353      1220      2013       898      1219      1213
 -1      2018    6    0    1
 -2        79      1011       201       918      2227      2349       455      2203      1182      2202
 -1      2019    6    0    1
 -2       201      1011        79       246      2349      2227       455       456      2270       453
 -1      2020    6    0    1
 -2        88       248       973       249       478      2127      2353       484       485      2126
 -1      2021    6    0    1
 -2       973       248        88       972      2127       478      2353      1220      1721      2013
 -3
    1PSTEP                         1           1           1          
  100CL  101 1.000000000        2353                     0    1           1
 -4  DISP        4    1
 -5  D1          1    2    1    0
 -5  D2          1    2    2    0
 -5  D3          1    2    3    0
 -5  ALL         1    2    0    0    1ALL
 -1         1 0.00000E+00 0.00000E+00 0.00000E+00
 -1         2-8.56223E-05-1.68095E-02-1.35261E-04
 -1         3-8.56660E-05-1.70990E-02-8.95461E-05
 -1         4 0.00000E+00 0.00000E+00 0.00000E+00
 -1         5-8.64122E-05-1.70990E-02-1.08652E-04
 -1         6 0.00000E+00 0.00000E+00 0.00000E+00
 -1         7-5.74865E-06-1.13273E-06-9.70566E-06
 -1         8-8.67467E-06-7.20140E-05-2.39261E-05
 -1         9-1.06373E-05-2.17579E-04-3.32241E-05
 -1        10-1.24652E-05-4.30611E-04-4.42811E-05
 -1        11-1.41977E-05-7.04903E-04-5.38419E-05
 -1        12-1.58382E-05-1.03527E-03-6.15095E-05
 -1        13-1.72825E-05-1.41782E-03-7.12519E-05
 -1        14-1.87865E-05-1.84604E-03-7.91795E-05
 -1        15-2.10613E-05-2.31617E-03-8.60325E-05
 -1        16-2.29625E-05-2.82548E-03-9.22494E-05
 -1        17-2.51161E-05-3.36902E-03-9.90285E-05
 -1        18-2.75736E-05-3.94383E-03-1.04228E-04
 -1        19-3.00652E-05-4.54656E-03-1.08332E-04
 -1        20-3.27289E-05-5.17421E-03-1.13337E-04
 -1        21-3.54988E-05-5.82404E-03-1.16884E-04
 -1        22-3.84222E-05-6.49332E-03-1.20529E-04
 -1        23-4.14074E-05-7.17933E-03-1.23036E-04
 -1        24-4.45140E-05-7.87993E-03-1.25840E-04
 -1        25-4.76730E-05-8.59302E-03-1.27816E-04
 -1        26-5.09229E-05-9.31653E-03-1.29756E-04
 -1        27-5.42180E-05-1.00486E-02-1.31052E-04
 -1        28-5.75591E-05-1.07875E-02-1.32507E-04
 -1        29-6.10308E-05-1.15320E-02-1.33246E-04
 -1        30-6.44312E-05-1.22807E-02-1.34056E-04
 -1        31-6.79148E-05-1.30324E-02-1.34429E-04
 -1        32-7.14311E-05-1.37863E-02-1.34868E-04
 -1        33-7.49772E-05-1.45414E-02-1.35110E-04
 -1        34-7.85336E-05-1.52973E-02-1.35206E-04
 -1        35-8.20795E-05-1.60534E-02-1.35259E-04
 -1        36-3.55400E-06 5.62779E-06-4.73258E-06
 -1        37-6.79464E-06-2.76971E-05-1.63948E-05
 -1        38-9.56616E-06-1.36707E-04-2.85019E-05
 -1        39-1.15991E-05-3.16984E-04-3.85335E-05
 -1        40-1.33095E-05-5.60981E-04-4.88136E-05
 -1        41-1.49262E-05-8.63709E-04-5.78070E-05
 -1        42-1.61783E-05-1.22072E-03-6.68105E-05
 -1        43-1.79584E-05-1.62717E-03-7.54325E-05
 -1        44-1.99016E-05-2.07632E-03-8.26703E-05
 -1        45-2.18103E-05-2.56658E-03-8.94447E-05
 -1        46-2.38545E-05-3.09358E-03-9.58336E-05
 -1        47-2.62218E-05-3.65297E-03-1.01763E-04
 -1        48-2.87581E-05-4.24223E-03-1.06431E-04
 -1        49-3.12370E-05-4.85758E-03-1.11047E-04
 -1        50-3.40078E-05-5.49678E-03-1.15248E-04
 -1        51-3.68519E-05-6.15652E-03-1.18824E-04
 -1        52-3.98471E-05-6.83457E-03-1.21879E-04
 -1        53-4.28670E-05-7.52801E-03-1.24562E-04
 -1        54-4.60268E-05-8.23519E-03-1.26912E-04
 -1        55-4.92348E-05-8.95364E-03-1.28860E-04
 -1        56-5.25318E-05-9.68168E-03-1.30455E-04
 -1        57-5.58529E-05-1.04173E-02-1.31838E-04
 -1        58-5.92826E-05-1.11592E-02-1.32822E-04
 -1        59-6.26867E-05-1.19059E-02-1.33688E-04
 -1        60-6.61946E-05-1.26562E-02-1.34230E-04
 -1        61-6.96716E-05-1.34092E-02-1.34666E-04
 -1        62-7.31925E-05-1.41637E-02-1.35006E-04
 -1        63-7.67499E-05-1.49193E-02-1.35164E-04
 -1        64-8.03037E-05-1.56753E-02-1.35240E-04
 -1        65-8.38555E-05-1.64315E-02-1.35261E-04
 -1        66-7.00910E-05-1.68331E-02 2.75156E-04
 -1        67-6.35150E-05-1.68724E-02 4.54237E-04
 -1        68-6.35427E-05-1.69266E-02 4.63931E-04
 -1        69-6.81890E-05-1.69839E-02 3.51358E-04
 -1        70-7.56485E-05-1.70413E-02 1.63405E-04
 -1        71-7.53420E-05-1.68192E-02 1.35545E-04
 -1        72-6.58149E-05-1.68526E-02 3.90337E-04
 -1        73-6.27121E-05-1.68995E-02 4.80527E-04
 -1        74-6.54640E-05-1.69553E-02 4.18789E-04
 -1        75-7.16090E-05-1.70126E-02 2.65626E-04
 -1        76-8.03021E-05-1.70701E-02 4.52774E-05
 -1        77 6.00255E-06-4.44001E-05-1.51953E-05
 -1        78 7.17114E-06-3.55969E-04-2.84696E-05
 -1        79 4.03955E-06-9.70265E-04-4.12423E-05
 -1        80-1.41493E-06-1.82023E-03-5.20056E-05
 -1        81-7.98454E-06-2.84739E-03-6.12816E-05
 -1        82-1.52578E-05-4.01427E-03-6.87895E-05
 -1        83-2.29320E-05-5.28930E-03-7.48291E-05
 -1        84-3.08307E-05-6.64765E-03-7.95102E-05
 -1        85-3.88776E-05-8.06962E-03-8.31131E-05
 -1        86-4.69146E-05-9.53582E-03-8.57569E-05
 -1        87-5.49671E-05-1.10318E-02-8.74990E-05
 -1        88-6.28545E-05-1.25438E-02-8.86685E-05
 -1        89-7.06013E-05-1.40629E-02-8.92556E-05
 -1        90-7.81745E-05-1.55821E-02-8.95112E-05
 -1        91 3.96518E-06 3.83838E-06-7.49793E-06
 -1        92 7.24493E-06-1.61157E-04-2.19854E-05
 -1        93 6.06727E-06-6.29266E-04-3.50818E-05
 -1        94 1.63993E-06-1.37048E-03-4.67857E-05
 -1        95-4.54589E-06-2.31449E-03-5.68224E-05
 -1        96-1.14892E-05-3.41549E-03-6.50896E-05
 -1        97-1.90456E-05-4.64055E-03-7.18597E-05
 -1        98-2.68037E-05-5.95891E-03-7.72950E-05
 -1        99-3.48124E-05-7.35185E-03-8.14292E-05
 -1       100-4.28835E-05-8.79796E-03-8.45340E-05
 -1       101-5.09356E-05-1.02811E-02-8.67090E-05
 -1       102-5.89269E-05-1.17864E-02-8.81553E-05
 -1       103-6.67405E-05-1.33029E-02-8.90065E-05
 -1       104-7.44060E-05-1.48228E-02-8.94325E-05
 -1       105-8.19185E-05-1.63408E-02-8.95402E-05
 -1       106 0.00000E+00 0.00000E+00 0.00000E+00
 -1       107 0.00000E+00 0.00000E+00 0.00000E+00
 -1       108 0.00000E+00 0.00000E+00 0.00000E+00
 -1       109 0.00000E+00 0.00000E+00 0.00000E+00
 -1       110 0.00000E+00 0.00000E+00 0.00000E+00
 -1       111 0.00000E+00 0.00000E+00 0.00000E+00
 -1       112 0.00000E+00 0.00000E+00 0.00000E+00
 -1       113 0.00000E+00 0.00000E+00 0.00000E+00
 -1       114 0.00000E+00 0.00000E+00 0.00000E+00
 -1       115 0.00000E+00 0.00000E+00 0.00000E+00
 -1       116 0.00000E+00 0.00000E+00 0.00000E+00
 -1       117-8.60391E-05-1.70990E-02-9.90989E-05
 -1       118 6.87045E-06-4.45025E-05-1.70834E-05
 -1       119 8.81970E-06-3.56113E-04-3.44518E-05
 -1       120 5.89088E-06-9.70409E-04-5.06781E-05
 -1       121 1.39357E-07-1.82036E-03-6.39713E-05
 -1       122-6.77087E-06-2.84749E-03-7.52033E-05
 -1       123-1.44298E-05-4.01435E-03-8.42769E-05
 -1       124-2.24163E-05-5.28935E-03-9.14684E-05
 -1       125-3.05769E-05-6.64767E-03-9.71289E-05
 -1       126-3.88843E-05-8.06963E-03-1.01385E-04
 -1       127-4.71412E-05-9.53582E-03-1.04490E-04
 -1       128-5.53926E-05-1.10318E-02-1.06490E-04
 -1       129-6.34178E-05-1.25438E-02-1.07796E-04
 -1       130-7.12623E-05-1.40629E-02-1.08421E-04
 -1       131-7.88916E-05-1.55821E-02-1.08644E-04
 -1       132 4.43954E-06 3.76513E-06-8.08212E-06
 -1       133 8.50911E-06-1.61282E-04-2.58734E-05
 -1       134 7.81484E-06-6.29418E-04-4.28297E-05
 -1       135 3.32941E-06-1.37062E-03-5.74827E-05
 -1       136-3.16999E-06-2.31461E-03-6.97755E-05
 -1       137-1.04782E-05-3.41558E-03-7.97973E-05
 -1       138-1.83900E-05-4.64061E-03-8.79339E-05
 -1       139-2.64225E-05-5.95895E-03-9.44283E-05
 -1       140-3.46980E-05-7.35187E-03-9.93579E-05
 -1       141-4.30068E-05-8.79796E-03-1.03020E-04
 -1       142-5.12659E-05-1.02811E-02-1.05566E-04
 -1       143-5.94232E-05-1.17863E-02-1.07215E-04
 -1       144-6.73534E-05-1.33029E-02-1.08153E-04
 -1       145-7.50954E-05-1.48228E-02-1.08581E-04
 -1       146-8.26499E-05-1.63408E-02-1.08659E-04
 -1       147 0.00000E+00 0.00000E+00 0.00000E+00
 -1       148 0.00000E+00 0.00000E+00 0.00000E+00
 -1       149 0.00000E+00 0.00000E+00 0.00000E+00
 -1       150 0.00000E+00 0.00000E+00 0.00000E+00
 -1       151 0.00000E+00 0.00000E+00 0.00000E+00
 -1       152 0.00000E+00 0.00000E+00 0.00000E+00
 -1       153 0.00000E+00 0.00000E+00 0.00000E+00
 -1       154 0.00000E+00 0.00000E+00 0.00000E+00
 -1       155 0.00000E+00 0.00000E+00 0.00000E+00
 -1       156 0.00000E+00 0.00000E+00 0.00000E+00
 -1       157 0.00000E+00 0.00000E+00 0.00000E+00
 -1       158 0.00000E+00 0.00000E+00 0.00000E+00
 -1       159-9.55226E-05-1.68358E-02-3.91752E-04
 -1       160-9.70963E-05-1.68752E-02-4.28265E-04
 -1       161-9.66435E-05-1.69286E-02-4.07996E-04
 -1       162-9.41459E-05-1.69850E-02-3.30639E-04
 -1       163-9.06521E-05-1.70416E-02-2.27603E-04
 -1       164-9.32265E-05-1.68213E-02-3.33203E-04
 -1       165-9.67261E-05-1.68555E-02-4.21008E-04
 -1       166-9.71505E-05-1.69019E-02-4.25916E-04
 -1       167-9.55644E-05-1.69568E-02-3.74137E-04
 -1       168-9.24903E-05-1.70132E-02-2.81195E-04
 -1       169-8.86486E-05-1.70702E-02-1.70397E-04
 -1       170-3.91007E-05-1.09017E-02 3.15232E-04
 -1       171-4.54027E-05-1.15251E-02 2.37489E-04
 -1       172 7.58121E-06-6.74970E-04 1.77754E-04
 -1       173-1.63929E-06-6.67162E-04 1.71088E-04
 -1       174 4.88345E-06-9.34507E-04 2.06245E-04
 -1       175-6.84696E-06-1.04069E-03 1.98546E-04
 -1       176-4.75464E-05-1.34091E-02 4.35709E-04
 -1       177-4.97204E-05-1.41115E-02 4.73835E-04
 -1       178-5.24163E-05-1.40584E-02 3.88936E-04
 -1       179-4.29403E-05-1.25926E-02 4.54526E-04
 -1       180-4.62139E-05-1.32975E-02 4.74214E-04
 -1       181-3.70840E-05-1.08963E-02 4.45552E-04
 -1       182-4.19930E-05-1.08781E-02 3.42377E-04
 -1       183-4.49561E-05-1.19455E-02 3.75832E-04
 -1       184-1.08004E-05-6.65203E-04 1.45014E-04
 -1       185-5.95468E-06-2.78197E-04 1.04307E-04
 -1       186-2.97058E-05-9.08671E-03 4.34839E-04
 -1       187-3.60563E-05-9.14617E-03 3.23516E-04
 -1       188-3.56110E-05-1.00388E-02 4.07313E-04
 -1       189 4.40824E-06-3.58025E-04 1.31789E-04
 -1       190-2.17671E-05-5.56557E-03 3.39459E-04
 -1       191-1.72133E-05-4.55901E-03 3.38326E-04
 -1       192-2.41153E-05-5.06408E-03 2.67769E-04
 -1       193-1.49057E-05-5.21831E-03 3.85997E-04
 -1       194-1.92433E-05-6.29195E-03 4.01855E-04
 -1       195-2.69580E-05-6.33537E-03 2.99758E-04
 -1       196-2.52407E-05-7.17720E-03 3.82971E-04
 -1       197-3.04775E-05-8.30137E-03 3.73188E-04
 -1       198-3.20117E-05-7.75722E-03 2.97881E-04
 -1       199-2.46989E-05-7.91092E-03 4.28551E-04
 -1       200-1.44593E-05-6.15693E-04 9.80796E-05
 -1       201-1.55410E-05-1.05718E-03 9.00477E-05
 -1       202-1.49627E-05-9.86680E-04 1.49573E-04
 -1       203-1.10783E-05-3.79105E-03 3.44772E-04
 -1       204-2.04612E-05-3.92081E-03 2.64631E-04
 -1       205-9.27254E-06-5.90063E-04 3.53294E-05
 -1       206-9.81804E-06-2.92567E-03 3.09246E-04
 -1       207-1.82738E-05-2.81193E-03 2.35559E-04
 -1       208-1.58955E-05-3.32221E-03 2.89871E-04
 -1       209-7.60874E-06-1.85787E-03 2.57926E-04
 -1       210-1.65359E-05-1.84460E-03 2.00193E-04
 -1       211-1.35848E-05-2.29369E-03 2.53909E-04
 -1       212-5.16511E-05-1.26618E-02 2.79068E-04
 -1       213-4.80288E-05-1.16917E-02 2.68429E-04
 -1       214-1.21438E-05-1.41289E-03 2.07063E-04
 -1       215-5.31510E-05-1.35300E-02 2.99715E-04
 -1       216-4.84108E-05-1.28188E-02 3.30377E-04
 -1       217-9.55792E-06-2.73571E-04 4.17121E-05
 -1       218-1.17492E-05-3.75544E-04 8.90661E-05
 -1       219-4.12466E-05-9.99255E-03 2.69995E-04
 -1       220-4.16181E-05-9.14275E-03 1.40386E-04
 -1       221-4.64799E-05-1.01677E-02 1.11262E-04
 -1       222-3.57075E-05-8.37306E-03 2.55652E-04
 -1       223-3.59916E-05-7.70049E-03 1.36459E-04
 -1       224-3.13340E-05-7.11992E-03 2.54206E-04
 -1       225-4.77143E-05-1.09491E-02 1.85878E-04
 -1       226-3.08778E-05-6.30946E-03 1.30853E-04
 -1       227-2.70331E-05-5.61595E-03 2.33463E-04
 -1       228-5.20316E-05-1.40614E-02 4.23796E-04
 -1       229-5.14605E-05-1.43819E-02 4.69986E-04
 -1       230 9.33786E-06-1.20857E-03 1.10426E-04
 -1       231 1.08044E-05-1.51279E-03 1.57769E-04
 -1       232-4.19306E-05-1.21250E-02 4.56102E-04
 -1       233-4.86333E-05-1.30413E-02 3.98124E-04
 -1       234-3.89643E-05-1.16687E-02 4.33703E-04
 -1       235-4.45471E-05-1.21191E-02 3.37865E-04
 -1       236-2.61767E-05-4.98897E-03 1.23290E-04
 -1       237-2.38614E-05-4.48971E-03 2.24823E-04
 -1       238-5.83042E-05-1.47726E-02 3.44172E-04
 -1       239-6.27264E-05-1.43594E-02 1.74447E-04
 -1       240-6.42617E-05-1.51438E-02 2.29411E-04
 -1       241-7.00593E-05-1.49231E-02 4.35650E-05
 -1       242-2.22796E-05-3.75976E-03 1.13506E-04
 -1       243-2.11627E-05-3.31710E-03 2.03852E-04
 -1       244-1.90160E-05-2.64730E-03 1.01130E-04
 -1       245-1.91209E-05-2.27294E-03 1.77615E-04
 -1       246-1.62615E-05-1.67241E-03 8.79749E-05
 -1       247-1.73213E-05-1.38648E-03 1.45810E-04
 -1       248-5.36099E-05-1.19334E-02 1.28322E-04
 -1       249-5.90589E-05-1.31268E-02 1.21746E-04
 -1       250-6.17013E-05-1.58284E-02 3.79749E-04
 -1       251-5.85121E-05-1.59528E-02 4.75224E-04
 -1       252-5.60709E-05-1.51158E-02 4.40785E-04
 -1       253 6.40578E-06-6.71305E-05 5.38279E-05
 -1       254 7.47132E-06-2.59505E-05 2.71740E-05
 -1       255-6.45542E-05-1.62305E-02 3.46149E-04
 -1       256-5.79411E-05-1.57180E-02 4.57652E-04
 -1       257-5.51037E-05-1.36679E-02 3.00972E-04
 -1       258-5.40717E-05-1.50550E-02 4.80102E-04
 -1       259-5.41104E-05-1.48770E-02 4.52117E-04
 -1       260-5.93593E-05-1.52128E-02 3.54271E-04
 -1       261-6.36851E-05-1.56635E-02 2.97710E-04
 -1       262 3.27442E-06-2.49471E-03 1.62351E-04
 -1       263 9.77583E-06-2.02636E-03 2.11290E-04
 -1       264 7.75862E-06-2.50757E-03 2.64850E-04
 -1       265 7.38811E-06-2.12311E-03 2.83957E-04
 -1       266-3.86757E-05-1.02697E-02 2.42230E-04
 -1       267-3.21495E-05-9.59296E-03 3.16268E-04
 -1       268-3.31000E-05-1.02733E-02 3.92263E-04
 -1       269-2.85281E-05-9.62576E-03 4.45208E-04
 -1       270-2.38774E-05-7.40561E-03 2.25815E-04
 -1       271-1.71877E-05-6.75922E-03 2.95533E-04
 -1       272-1.83555E-05-7.40030E-03 3.70507E-04
 -1       273-1.47919E-05-6.79402E-03 4.15788E-04
 -1       274-9.51337E-06-4.75516E-03 2.01592E-04
 -1       275-3.10928E-06-4.18767E-03 2.58555E-04
 -1       276-4.38946E-06-4.75740E-03 3.29942E-04
 -1       277-2.37831E-06-4.22599E-03 3.63367E-04
 -1       278 1.30815E-05-2.87452E-04 1.08342E-04
 -1       279 1.33923E-05-1.92421E-04 6.23309E-05
 -1       280 1.15020E-05-1.28547E-04 6.77751E-05
 -1       281 9.77945E-06-6.51378E-05 2.79843E-05
 -1       282 6.82497E-06-1.83325E-04 9.41946E-05
 -1       283 2.45732E-06-2.16588E-03 1.23768E-04
 -1       284-5.91987E-05-1.46407E-02 2.84951E-04
 -1       285 1.48099E-05-3.75517E-04 8.98324E-05
 -1       286-2.57704E-05-8.12620E-03 2.74343E-04
 -1       287-3.11888E-05-8.85118E-03 2.40750E-04
 -1       288-1.10804E-05-5.40547E-03 2.49193E-04
 -1       289-1.63822E-05-6.06763E-03 2.22230E-04
 -1       290 2.29845E-06-3.02964E-03 2.07187E-04
 -1       291-2.65348E-06-3.58584E-03 1.90224E-04
 -1       292 1.48429E-05-8.35773E-04 1.75367E-04
 -1       293 1.46057E-05-1.15269E-03 1.79877E-04
 -1       294 1.23097E-05-8.74375E-04 1.09701E-04
 -1       295 1.12100E-05-1.16947E-03 2.20708E-04
 -1       296-3.51766E-05-1.09412E-02 4.38844E-04
 -1       297-2.50584E-05-8.77510E-03 3.98192E-04
 -1       298-1.94929E-06-1.83961E-05 1.02839E-05
 -1       299-2.08426E-05-8.03551E-03 4.18279E-04
 -1       300-7.09833E-05-1.60289E-02 1.58715E-04
 -1       301-1.07983E-05-6.00348E-03 3.66234E-04
 -1       302-7.32370E-06-5.33007E-03 3.78300E-04
 -1       303 2.20876E-06-3.54072E-03 3.11619E-04
 -1       304-4.04779E-05-1.21365E-02 4.75384E-04
 -1       305 4.54413E-06-2.97805E-03 3.12421E-04
 -1       306 1.39219E-05-5.20939E-04 1.46185E-04
 -1       307-3.24901E-05-1.04186E-02 4.67712E-04
 -1       308-3.65597E-05-1.12651E-02 4.72202E-04
 -1       309-8.07769E-06-1.51316E-04 5.36854E-05
 -1       310-4.03929E-06-4.60801E-05 3.81919E-05
 -1       311 1.07028E-05-1.61237E-03 2.47610E-04
 -1       312 1.78025E-06-6.63286E-05 5.61524E-05
 -1       313-2.66505E-05-9.09131E-03 4.58764E-04
 -1       314-3.08004E-05-9.78637E-03 4.59092E-04
 -1       315-1.89781E-05-7.55853E-03 4.39125E-04
 -1       316-2.34895E-05-8.38180E-03 4.52165E-04
 -1       317-1.43387E-05-6.29812E-03 4.24097E-04
 -1       318-1.89893E-05-6.94474E-03 4.29677E-04
 -1       319-2.27994E-06-8.86038E-05 6.18704E-05
 -1       320-6.81921E-06-4.90300E-03 3.92177E-04
 -1       321-1.15565E-05-5.64660E-03 4.11860E-04
 -1       322-3.81456E-06-3.79807E-03 3.64153E-04
 -1       323-9.04763E-06-4.35973E-03 3.76880E-04
 -1       324-5.82738E-05-1.41257E-02 2.42993E-04
 -1       325 2.24632E-06-2.66981E-03 3.19736E-04
 -1       326-1.61932E-06-3.24520E-03 3.44590E-04
 -1       327 1.46675E-05-6.02146E-04 1.06640E-04
 -1       328 2.32125E-06-1.80185E-03 2.73892E-04
 -1       329-3.14905E-06-2.22828E-03 2.92921E-04
 -1       330 1.65482E-07-1.42946E-03 2.45662E-04
 -1       331 9.38763E-08-1.86064E-04 9.41171E-05
 -1       332 3.75809E-06 1.64157E-06 2.99270E-06
 -1       333-7.32016E-05-1.64419E-02 1.45238E-04
 -1       334-7.32869E-05-1.65351E-02 1.61087E-04
 -1       335-7.79386E-05-1.65637E-02 4.25755E-05
 -1       336-7.43032E-05-1.58057E-02 4.26587E-05
 -1       337-6.99055E-07-3.39956E-05 2.00738E-06
 -1       338-1.59964E-07-3.27075E-07-3.20723E-07
 -1       339-1.05976E-06-3.54208E-06 4.59722E-06
 -1       340 4.91442E-06-2.63855E-05 7.79916E-06
 -1       341 5.80428E-06-6.64100E-05 1.39327E-05
 -1       342 6.35572E-06-1.46852E-05 1.31248E-05
 -1       343 4.28892E-06-6.03773E-06 1.08000E-05
 -1       344 9.29137E-06-4.36642E-05 3.00445E-05
 -1       345 8.43080E-06-1.27325E-04 2.74732E-05
 -1       346 8.90431E-06-2.02994E-04 3.61417E-05
 -1       347 1.20288E-05-1.20905E-04 4.42956E-05
 -1       348 9.97046E-06-2.93031E-04 4.54336E-05
 -1       349 9.68309E-06-4.00238E-04 5.31804E-05
 -1       350 1.45050E-05-2.76648E-04 7.58686E-05
 -1       351 8.87225E-06-5.13355E-04 5.48423E-05
 -1       352 8.23808E-06-6.49832E-04 6.17058E-05
 -1       353 1.51273E-05-4.82544E-04 9.85893E-05
 -1       354 4.98732E-06-9.50731E-04 5.86750E-05
 -1       355 5.77907E-06-7.86739E-04 5.35705E-05
 -1       356 1.38762E-05-7.32434E-04 1.09206E-04
 -1       357 1.52782E-06-1.30852E-03 5.42325E-05
 -1       358 2.23728E-06-1.11821E-03 5.01870E-05
 -1       359 1.11465E-05-1.03546E-03 1.10930E-04
 -1       360 3.05506E-06-1.67363E-03 9.08218E-05
 -1       361 4.21660E-06-1.46306E-03 8.60700E-05
 -1       362 1.04239E-05-1.35743E-03 1.34477E-04
 -1       363-4.81530E-06-2.23819E-03 5.42272E-05
 -1       364-3.78340E-06-2.00180E-03 5.13615E-05
 -1       365 4.35208E-06-1.93538E-03 1.24063E-04
 -1       366 1.05763E-05-1.76260E-03 1.84836E-04
 -1       367 7.19025E-06-2.09584E-03 1.74723E-04
 -1       368-4.58001E-06-2.65572E-03 8.35811E-05
 -1       369-3.29174E-06-2.40273E-03 8.01594E-05
 -1       370 3.10512E-06-2.32821E-03 1.43366E-04
 -1       371-5.16995E-06-3.19554E-03 1.16266E-04
 -1       372-3.72915E-06-2.92520E-03 1.12654E-04
 -1       373 2.99640E-06-2.75759E-03 1.85073E-04
 -1       374-1.01885E-05-3.76120E-03 9.81507E-05
 -1       375-8.74600E-06-3.47490E-03 9.50586E-05
 -1       376 7.31161E-08-3.30341E-03 1.99851E-04
 -1       377-8.42595E-06-4.06401E-03 1.48640E-04
 -1       378-1.00990E-05-4.36416E-03 1.52068E-04
 -1       379-2.53091E-06-3.88323E-03 2.25904E-04
 -1       380-1.67841E-05-4.96129E-03 1.01782E-04
 -1       381-1.52876E-05-4.64857E-03 9.94974E-05
 -1       382-5.94139E-06-4.46838E-03 2.33593E-04
 -1       383-1.83011E-05-5.61176E-03 1.37925E-04
 -1       384-1.65762E-05-5.28785E-03 1.35514E-04
 -1       385-1.01054E-05-5.07731E-03 2.25996E-04
 -1       386-2.33710E-05-6.27762E-03 1.13431E-04
 -1       387-2.17123E-05-5.94373E-03 1.11579E-04
 -1       388-1.36188E-05-5.73379E-03 2.36716E-04
 -1       389-2.22235E-05-6.62465E-03 1.70155E-04
 -1       390-2.40472E-05-6.96691E-03 1.72216E-04
 -1       391-1.65252E-05-6.41129E-03 2.60985E-04
 -1       392-3.06686E-05-7.64021E-03 1.12861E-04
 -1       393-2.89531E-05-7.29059E-03 1.11520E-04
 -1       394-2.02750E-05-7.08060E-03 2.64191E-04
 -1       395-3.26273E-05-8.35727E-03 1.50692E-04
 -1       396-3.07830E-05-8.00134E-03 1.49367E-04
 -1       397-2.47036E-05-7.76419E-03 2.50899E-04
 -1       398-3.77347E-05-9.08167E-03 1.22003E-04
 -1       399-3.59387E-05-8.72034E-03 1.21043E-04
 -1       400-2.84158E-05-8.48718E-03 2.58449E-04
 -1       401-3.69386E-05-9.45326E-03 1.82352E-04
 -1       402-3.88271E-05-9.81883E-03 1.83365E-04
 -1       403-3.14912E-05-9.22097E-03 2.80915E-04
 -1       404-4.51362E-05-1.05266E-02 1.21304E-04
 -1       405-4.33049E-05-1.01575E-02 1.20754E-04
 -1       406-3.52479E-05-9.93041E-03 2.82396E-04
 -1       407-4.85339E-05-1.11545E-02 1.15948E-04
 -1       408-5.03843E-05-1.15271E-02 1.16300E-04
 -1       409-4.42731E-05-1.08432E-02 1.80243E-04
 -1       410-4.21187E-05-1.12129E-02 2.79513E-04
 -1       411-3.87678E-05-1.05852E-02 2.81115E-04
 -1       412-5.22195E-05-1.19009E-02 1.16576E-04
 -1       413-5.43012E-05-1.29241E-02 1.92111E-04
 -1       414-5.24229E-05-1.25483E-02 1.91774E-04
 -1       415-5.03781E-05-1.21984E-02 1.99109E-04
 -1       416-4.47610E-05-1.18219E-02 2.92450E-04
 -1       417-4.64767E-05-1.24686E-02 3.34225E-04
 -1       418-5.70889E-05-1.32798E-02 1.65601E-04
 -1       419-5.89618E-05-1.36567E-02 1.65793E-04
 -1       420-5.07508E-05-1.31741E-02 3.15579E-04
 -1       421-6.40557E-05-1.43321E-02 1.19800E-04
 -1       422-6.22143E-05-1.39546E-02 1.19720E-04
 -1       423-5.56426E-05-1.38277E-02 2.72898E-04
 -1       424-6.58438E-05-1.49675E-02 1.53426E-04
 -1       425-6.40130E-05-1.45897E-02 1.53378E-04
 -1       426-5.87056E-05-1.43831E-02 2.64762E-04
 -1       427-6.97209E-05-1.58570E-02 1.63789E-04
 -1       428-6.79109E-05-1.54790E-02 1.63776E-04
 -1       429-6.49608E-05-1.52536E-02 2.12454E-04
 -1       430-6.14550E-05-1.54381E-02 3.27774E-04
 -1       431-5.91829E-05-1.49267E-02 3.22171E-04
 -1       432-6.94954E-05-1.61406E-02 2.05082E-04
 -1       433-6.72293E-05-1.65318E-02 3.13223E-04
 -1       434-6.40729E-05-1.59470E-02 3.23214E-04
 -1       435-6.35729E-05-1.65514E-02 4.12315E-04
 -1       436-6.09929E-05-1.64397E-02 4.70343E-04
 -1       437-6.04341E-05-1.64126E-02 4.79697E-04
 -1       438-6.07318E-05-1.62952E-02 4.55965E-04
 -1       439-5.77144E-05-1.58353E-02 4.79878E-04
 -1       440-6.07246E-05-1.59741E-02 4.15396E-04
 -1       441-6.23267E-05-1.63777E-02 4.29391E-04
 -1       442-6.49080E-05-1.64061E-02 3.65903E-04
 -1       443-5.96305E-05-1.58906E-02 4.40463E-04
 -1       444-6.92669E-05-1.65066E-02 2.63604E-04
 -1       445-6.58894E-05-1.59286E-02 2.81575E-04
 -1       446-4.11372E-06-3.16337E-04 1.25532E-05
 -1       447-1.97327E-06-1.41155E-04 6.46480E-06
 -1       448-5.70183E-06-1.05295E-04 2.60365E-05
 -1       449-3.89787E-06-7.67309E-04 3.87333E-06
 -1       450-2.10084E-06-4.71033E-04 2.15054E-06
 -1       451-9.78266E-06-4.16475E-04 4.08782E-05
 -1       452-1.09147E-05-1.74811E-03 2.49680E-05
 -1       453-9.03914E-06-1.31589E-03 2.21698E-05
 -1       454-1.29549E-05-8.12431E-04 6.12857E-05
 -1       455-9.20844E-06-1.02139E-03 3.05229E-05
 -1       456-1.58811E-05-1.34946E-03 9.01999E-05
 -1       457-1.49941E-05-2.74866E-03 2.70523E-05
 -1       458-1.27463E-05-2.23087E-03 2.52562E-05
 -1       459-1.75477E-05-2.13903E-03 9.49069E-05
 -1       460-1.99212E-05-3.88765E-03 2.97529E-05
 -1       461-1.73708E-05-3.30221E-03 2.84173E-05
 -1       462-2.05380E-05-3.18717E-03 1.07443E-04
 -1       463-2.54237E-05-5.13968E-03 3.16690E-05
 -1       464-2.24989E-05-4.50127E-03 3.08377E-05
 -1       465-2.41348E-05-4.36129E-03 1.18534E-04
 -1       466-3.14130E-05-6.47895E-03 3.32636E-05
 -1       467-2.83219E-05-5.79949E-03 3.24700E-05
 -1       468-2.84766E-05-5.63914E-03 1.27189E-04
 -1       469-3.77515E-05-7.88528E-03 3.42686E-05
 -1       470-3.45137E-05-7.17495E-03 3.37739E-05
 -1       471-3.33553E-05-6.99758E-03 1.33764E-04
 -1       472-4.43841E-05-9.33934E-03 3.49074E-05
 -1       473-4.10332E-05-8.60727E-03 3.45804E-05
 -1       474-3.87496E-05-8.41640E-03 1.38513E-04
 -1       475-5.05343E-05-1.05981E-02 1.75657E-05
 -1       476-4.70592E-05-9.85304E-03 1.76314E-05
 -1       477-4.39844E-05-9.65323E-03 1.26136E-04
 -1       478-5.80223E-05-1.22380E-02 2.62730E-05
 -1       479-5.44854E-05-1.14836E-02 2.63291E-05
 -1       480-4.71763E-05-1.05582E-02 1.49298E-04
 -1       481-5.13559E-05-1.09912E-02 5.98237E-05
 -1       482-5.05844E-05-1.14401E-02 1.57846E-04
 -1       483-6.45477E-05-1.35940E-02 2.20685E-05
 -1       484-6.09662E-05-1.28360E-02 2.21898E-05
 -1       485-5.63122E-05-1.25293E-02 1.25147E-04
 -1       486-7.40088E-05-1.52525E-02-2.08310E-05
 -1       487-7.03297E-05-1.44934E-02-2.06875E-05
 -1       488-6.62727E-05-1.46411E-02 1.11574E-04
 -1       489-6.64214E-05-1.42115E-02 5.18682E-05
 -1       490-6.09113E-05-1.37430E-02 1.48508E-04
 -1       491-7.04867E-05-1.54763E-02 1.03050E-04
 -1       492 3.84099E-06-9.65537E-06 1.57866E-05
 -1       493 4.84292E-07-2.08329E-05 2.76467E-05
 -1       494 2.62021E-06-2.07449E-05 2.71564E-05
 -1       495 7.30475E-06-4.45202E-05 4.04215E-05
 -1       496 3.80424E-06-1.91358E-05 2.65749E-05
 -1       497 4.12939E-06-6.77769E-05 5.62418E-05
 -1       498-1.66262E-06-1.65675E-05 2.18377E-05
 -1       499-2.30439E-06-1.34134E-05 1.76767E-05
 -1       500-1.52260E-06-2.59899E-05 3.12038E-05
 -1       501-3.41853E-06-6.67326E-05 5.03249E-05
 -1       502-3.40990E-07-7.78639E-05 5.98790E-05
 -1       503-2.16894E-06-6.30072E-06 8.86125E-06
 -1       504-3.63744E-06-3.19036E-05 2.35624E-05
 -1       505-4.10226E-05-1.15970E-02 3.61388E-04
 -1       506-3.85439E-05-1.12848E-02 3.85740E-04
 -1       507-3.64995E-05-1.09216E-02 3.90932E-04
 -1       508-3.70593E-05-1.13044E-02 4.36493E-04
 -1       509-3.52194E-05-1.02715E-02 3.30622E-04
 -1       510-3.58678E-05-1.05869E-02 3.58391E-04
 -1       511-3.40268E-05-1.06068E-02 4.18137E-04
 -1       512-4.13859E-05-1.18938E-02 3.94462E-04
 -1       513 6.31996E-06-8.00208E-04 1.92291E-04
 -1       514 1.55528E-06-7.97031E-04 1.89783E-04
 -1       515 2.93000E-06-6.73131E-04 1.76576E-04
 -1       516 1.51180E-06-5.02438E-04 1.52993E-04
 -1       517 6.12903E-06-5.05141E-04 1.55350E-04
 -1       518 1.06560E-05-8.88233E-04 1.98091E-04
 -1       519 1.18650E-05-7.55245E-04 1.81698E-04
 -1       520 1.11253E-05-5.97332E-04 1.64345E-04
 -1       521 9.56059E-06-4.38313E-04 1.43600E-04
 -1       522 1.45234E-05-6.69789E-04 1.61428E-04
 -1       523-1.22767E-06-9.90250E-04 2.06181E-04
 -1       524-4.25104E-06-8.44994E-04 1.86157E-04
 -1       525-9.11156E-06-8.45436E-04 1.71878E-04
 -1       526-6.73219E-06-6.69328E-04 1.60608E-04
 -1       527-8.38711E-06-4.52439E-04 1.26330E-04
 -1       528-4.28875E-06-4.55025E-04 1.37996E-04
 -1       529-1.38440E-06-3.20788E-04 1.20725E-04
 -1       530 2.61776E-06-1.17097E-03 2.26810E-04
 -1       531-3.46340E-06-1.23044E-03 2.23511E-04
 -1       532 1.31879E-05-9.97333E-04 1.99002E-04
 -1       533 8.31051E-06-1.05017E-03 2.16566E-04
 -1       534 5.98507E-06-1.29969E-03 2.38868E-04
 -1       535-1.17792E-05-1.01770E-03 1.77000E-04
 -1       536-1.30833E-05-8.19043E-04 1.49077E-04
 -1       537-9.61779E-06-1.22101E-03 2.04331E-04
 -1       538-1.38965E-05-1.19393E-03 1.78342E-04
 -1       539-6.55876E-06-1.42582E-03 2.31251E-04
 -1       540-4.98727E-05-1.37336E-02 4.14928E-04
 -1       541-5.05141E-05-1.40850E-02 4.45540E-04
 -1       542-4.84667E-05-1.37602E-02 4.59519E-04
 -1       543-4.60891E-05-1.33535E-02 4.75263E-04
 -1       544-4.77611E-05-1.37044E-02 4.78840E-04
 -1       545-4.97594E-05-1.34696E-02 3.82067E-04
 -1       546-5.25816E-05-1.37941E-02 3.49158E-04
 -1       547-4.51937E-05-1.30005E-02 4.46089E-04
 -1       548-4.41448E-05-1.29449E-02 4.76725E-04
 -1       549-4.49987E-05-1.27057E-02 4.08471E-04
 -1       550-4.75929E-05-1.31138E-02 3.92386E-04
 -1       551-5.18232E-05-1.44941E-02 4.65311E-04
 -1       552-5.30800E-05-1.44676E-02 4.25622E-04
 -1       553-5.03336E-05-1.42467E-02 4.79099E-04
 -1       554-4.88410E-05-1.38393E-02 4.72474E-04
 -1       555-5.18395E-05-1.45831E-02 4.78906E-04
 -1       556-5.26797E-05-1.47184E-02 4.77062E-04
 -1       557-5.37702E-05-1.49660E-02 4.74525E-04
 -1       558-5.48737E-05-1.40920E-02 3.27693E-04
 -1       559-5.55505E-05-1.43494E-02 3.43472E-04
 -1       560-5.57629E-05-1.47588E-02 3.91341E-04
 -1       561-4.33218E-05-1.27162E-02 4.76112E-04
 -1       562-4.14745E-05-1.23645E-02 4.70529E-04
 -1       563-4.31558E-05-1.23558E-02 4.10509E-04
 -1       564-4.09342E-05-1.21300E-02 4.44930E-04
 -1       565-3.93235E-05-1.19026E-02 4.64878E-04
 -1       566-5.15927E-05-1.42218E-02 4.51059E-04
 -1       567-4.89240E-05-1.36793E-02 4.55652E-04
 -1       568-5.02969E-05-1.35511E-02 4.11419E-04
 -1       569-4.70783E-05-1.31698E-02 4.46644E-04
 -1       570-4.39861E-05-1.27106E-02 4.66561E-04
 -1       571-4.51784E-05-1.25826E-02 4.31572E-04
 -1       572-4.10274E-05-1.21309E-02 4.70718E-04
 -1       573-4.09324E-05-1.14197E-02 4.16102E-04
 -1       574-4.34493E-05-1.14109E-02 3.59498E-04
 -1       575-3.93946E-05-1.08880E-02 4.02312E-04
 -1       576-3.87838E-05-1.04574E-02 3.77794E-04
 -1       577-3.62694E-05-1.04668E-02 4.28026E-04
 -1       578-3.94681E-05-1.15092E-02 4.51090E-04
 -1       579-4.32701E-05-1.20357E-02 4.22455E-04
 -1       580-3.30769E-05-9.91298E-03 4.39740E-04
 -1       581-3.39209E-05-1.03395E-02 4.54308E-04
 -1       582-3.91356E-05-1.16945E-02 4.68418E-04
 -1       583-3.66172E-05-1.10810E-02 4.64267E-04
 -1       584-3.45097E-05-1.08409E-02 4.70192E-04
 -1       585-3.45750E-05-1.06575E-02 4.64038E-04
 -1       586-3.15330E-05-1.01020E-02 4.65409E-04
 -1       587-4.49758E-05-1.12840E-02 3.07374E-04
 -1       588-4.64350E-05-1.18190E-02 3.25952E-04
 -1       589-4.16415E-05-1.04348E-02 3.07561E-04
 -1       590-3.84216E-05-1.00167E-02 3.46729E-04
 -1       591-4.79042E-05-1.13203E-02 2.28416E-04
 -1       592-4.48318E-05-1.09142E-02 2.70318E-04
 -1       593-4.44172E-05-1.04692E-02 2.29862E-04
 -1       594-4.98298E-05-1.21761E-02 2.73851E-04
 -1       595-4.82195E-05-1.23031E-02 3.30952E-04
 -1       596-4.67679E-05-1.24928E-02 3.87262E-04
 -1       597-5.00136E-05-1.28519E-02 3.43866E-04
 -1       598-9.53504E-06-3.27687E-04 9.96438E-05
 -1       599-1.18928E-05-5.13089E-04 1.16709E-04
 -1       600-1.50325E-05-7.93396E-04 1.23294E-04
 -1       601-1.34819E-05-6.43746E-04 1.23396E-04
 -1       602-1.32382E-05-4.88493E-04 9.45968E-05
 -1       603-3.01964E-06-2.31084E-04 1.00818E-04
 -1       604 2.06503E-06-2.65977E-04 1.13356E-04
 -1       605-1.00247E-05-2.51365E-04 7.11791E-05
 -1       606-8.11304E-06-2.13546E-04 7.94219E-05
 -1       607-6.21253E-06-9.21829E-05 4.84020E-05
 -1       608-5.45536E-06-1.39033E-04 7.04112E-05
 -1       609-3.95874E-06-1.70693E-04 8.43870E-05
 -1       610-1.24908E-06-1.33140E-04 7.81440E-05
 -1       611-3.26570E-05-9.56092E-03 4.22982E-04
 -1       612-3.57996E-05-9.59193E-03 3.68666E-04
 -1       613-3.28479E-05-9.11773E-03 3.88706E-04
 -1       614-3.32773E-05-8.72188E-03 3.50167E-04
 -1       615-3.00242E-05-8.69333E-03 4.07323E-04
 -1       616-3.01754E-05-9.43582E-03 4.48650E-04
 -1       617-2.72028E-05-8.49505E-03 4.32010E-04
 -1       618-2.75784E-05-8.10625E-03 4.05374E-04
 -1       619-2.65142E-05-8.73352E-03 4.49378E-04
 -1       620-2.39265E-05-8.14628E-03 4.44799E-04
 -1       621-2.87027E-05-9.43796E-03 4.60337E-04
 -1       622-2.80040E-05-9.08959E-03 4.52582E-04
 -1       623-2.50515E-05-8.73531E-03 4.55562E-04
 -1       624-3.86327E-05-9.56778E-03 2.98078E-04
 -1       625-3.59268E-05-8.75890E-03 2.90590E-04
 -1       626-3.32066E-05-8.33826E-03 3.19823E-04
 -1       627-4.15758E-05-9.56779E-03 2.08135E-04
 -1       628-3.90178E-05-9.14582E-03 2.39776E-04
 -1       629-3.86241E-05-8.75620E-03 2.01329E-04
 -1       630 9.20049E-06-3.24811E-04 1.24111E-04
 -1       631 5.79994E-06-2.64095E-04 1.13581E-04
 -1       632 1.00828E-05-2.33524E-04 1.03172E-04
 -1       633 1.35443E-05-3.96103E-04 1.27330E-04
 -1       634 3.39622E-06-1.86116E-04 9.55926E-05
 -1       635-2.30736E-05-5.31453E-03 3.05319E-04
 -1       636-2.10013E-05-4.81052E-03 3.07739E-04
 -1       637-1.94923E-05-5.05465E-03 3.39856E-04
 -1       638-1.60426E-05-4.88631E-03 3.63913E-04
 -1       639-1.84487E-05-5.39222E-03 3.66918E-04
 -1       640-2.55894E-05-5.33785E-03 2.51546E-04
 -1       641-2.47894E-05-5.59264E-03 2.91414E-04
 -1       642-1.70674E-05-5.74827E-03 3.94355E-04
 -1       643-2.05229E-05-5.92719E-03 3.73513E-04
 -1       644-2.33663E-05-6.31616E-03 3.59605E-04
 -1       645-2.44267E-05-5.94713E-03 3.21534E-04
 -1       646-2.71100E-05-5.97396E-03 2.67340E-04
 -1       647-2.40459E-05-4.77493E-03 2.46529E-04
 -1       648-2.12775E-05-4.52783E-03 2.88162E-04
 -1       649-1.32441E-05-4.46081E-03 3.63051E-04
 -1       650-1.19805E-05-4.78332E-03 3.82750E-04
 -1       651-1.42496E-05-4.16935E-03 3.43525E-04
 -1       652-1.90403E-05-4.23816E-03 3.03341E-04
 -1       653-1.63737E-05-3.85927E-03 3.11988E-04
 -1       654-9.99008E-06-4.07274E-03 3.62131E-04
 -1       655-2.22725E-05-4.20214E-03 2.46441E-04
 -1       656-2.70892E-05-5.30238E-03 1.80106E-04
 -1       657-2.59267E-05-5.02921E-03 2.00925E-04
 -1       658-2.53808E-05-4.73752E-03 1.77936E-04
 -1       659-1.54001E-05-5.96798E-03 4.12358E-04
 -1       660-1.30937E-05-5.43228E-03 4.02909E-04
 -1       661-9.15919E-06-5.27122E-03 4.03147E-04
 -1       662-1.06784E-05-5.06184E-03 3.97257E-04
 -1       663-7.68502E-06-4.62970E-03 3.88332E-04
 -1       664-2.23037E-05-6.73106E-03 3.94353E-04
 -1       665-2.61676E-05-6.75474E-03 3.44142E-04
 -1       666-2.20981E-05-7.06179E-03 4.12479E-04
 -1       667-1.90310E-05-6.61681E-03 4.17314E-04
 -1       668-1.66574E-05-6.61970E-03 4.28251E-04
 -1       669-1.66678E-05-6.29610E-03 4.18288E-04
 -1       670-1.29201E-05-5.97002E-03 4.18112E-04
 -1       671-2.91517E-05-6.72471E-03 2.78454E-04
 -1       672-2.86174E-05-7.15068E-03 3.26112E-04
 -1       673-3.15027E-05-6.71434E-03 1.94901E-04
 -1       674-2.95554E-05-6.32505E-03 2.22614E-04
 -1       675-2.90620E-05-5.95992E-03 1.85677E-04
 -1       676-3.12770E-05-8.02926E-03 3.37640E-04
 -1       677-2.87599E-05-7.46645E-03 3.45283E-04
 -1       678-2.78502E-05-7.73484E-03 3.78876E-04
 -1       679-2.49130E-05-7.54278E-03 4.07857E-04
 -1       680-3.17068E-05-7.43751E-03 2.76391E-04
 -1       681-2.18494E-05-7.42447E-03 4.30426E-04
 -1       682-3.38485E-05-8.06384E-03 2.77605E-04
 -1       683-3.60835E-05-8.03710E-03 1.98401E-04
 -1       684-3.43306E-05-7.73048E-03 2.23168E-04
 -1       685-3.37444E-05-7.40899E-03 1.99110E-04
 -1       686-2.12068E-05-7.96815E-03 4.46852E-04
 -1       687-2.15843E-05-7.73539E-03 4.42948E-04
 -1       688-1.87564E-05-7.25067E-03 4.38656E-04
 -1       689-1.64255E-05-1.02473E-03 1.22971E-04
 -1       690-1.53717E-05-8.22264E-04 9.68154E-05
 -1       691-1.33681E-05-6.07072E-04 6.90759E-05
 -1       692-1.24973E-05-4.31537E-04 6.82553E-05
 -1       693-1.15616E-05-3.26233E-04 6.56009E-05
 -1       694-1.69240E-05-1.21968E-03 1.17762E-04
 -1       695-1.63431E-05-1.17910E-03 1.49309E-04
 -1       696-1.75274E-05-1.52731E-03 1.20318E-04
 -1       697-1.56739E-05-1.40334E-03 1.79383E-04
 -1       698-1.83045E-05-3.61740E-03 2.79178E-04
 -1       699-1.35539E-05-3.55570E-03 3.19418E-04
 -1       700-1.03649E-05-3.34857E-03 3.27519E-04
 -1       701-1.30176E-05-3.12229E-03 3.01634E-04
 -1       702-6.41877E-06-3.51609E-03 3.49477E-04
 -1       703-5.65020E-06-3.08659E-03 3.32137E-04
 -1       704-6.42386E-06-4.07606E-03 3.71753E-04
 -1       705-7.38930E-06-3.79624E-03 3.58974E-04
 -1       706-2.66299E-06-3.51787E-03 3.54537E-04
 -1       707-2.10497E-05-3.61632E-03 2.34600E-04
 -1       708-1.91765E-05-3.32239E-03 2.50948E-04
 -1       709-2.37517E-05-4.12331E-03 1.70647E-04
 -1       710-2.27188E-05-3.84503E-03 1.95453E-04
 -1       711-2.21804E-05-3.53652E-03 1.62445E-04
 -1       712-1.71847E-05-3.06466E-03 2.63410E-04
 -1       713-1.46570E-05-2.87245E-03 2.77308E-04
 -1       714-1.61077E-05-2.54795E-03 2.46765E-04
 -1       715-1.17585E-05-2.60402E-03 2.82552E-04
 -1       716-8.76596E-06-2.26412E-03 2.78157E-04
 -1       717-6.56842E-06-2.56835E-03 3.02993E-04
 -1       718 3.19787E-07-2.95251E-03 3.32737E-04
 -1       719-3.84354E-06-2.80023E-03 3.22270E-04
 -1       720-2.84258E-07-2.44646E-03 3.09218E-04
 -1       721-1.98353E-05-3.06067E-03 2.21480E-04
 -1       722-1.89161E-05-2.53887E-03 2.06717E-04
 -1       723-1.72015E-05-2.28679E-03 2.19451E-04
 -1       724-2.09015E-05-2.98011E-03 1.53313E-04
 -1       725-2.02482E-05-2.73517E-03 1.74017E-04
 -1       726-1.96149E-05-2.45799E-03 1.43113E-04
 -1       727-1.07460E-05-2.07175E-03 2.57781E-04
 -1       728-1.52796E-05-2.06608E-03 2.27483E-04
 -1       729-1.27967E-05-1.85513E-03 2.33132E-04
 -1       730-1.45260E-05-1.62299E-03 2.05509E-04
 -1       731-1.00199E-05-1.63080E-03 2.33156E-04
 -1       732-5.37876E-06-2.04065E-03 2.76371E-04
 -1       733-3.78344E-06-1.63880E-03 2.53906E-04
 -1       734-4.10538E-07-2.01099E-03 2.84448E-04
 -1       735-2.73653E-06-1.83218E-03 2.69412E-04
 -1       736 1.34794E-06-1.61134E-03 2.60261E-04
 -1       737-1.79878E-05-2.05436E-03 1.90673E-04
 -1       738-1.72375E-05-1.61093E-03 1.72927E-04
 -1       739-1.86510E-05-1.96893E-03 1.32865E-04
 -1       740-1.83222E-05-1.76451E-03 1.48444E-04
 -1       741-5.26076E-05-1.22980E-02 2.07879E-04
 -1       742-5.07475E-05-1.18126E-02 2.02237E-04
 -1       743-5.33622E-05-1.31645E-02 2.90174E-04
 -1       744-5.17636E-05-1.33544E-02 3.53493E-04
 -1       745-5.52204E-05-1.28941E-02 2.05179E-04
 -1       746-5.69663E-05-1.33978E-02 2.17522E-04
 -1       747-9.59933E-06-2.09739E-04 5.04889E-05
 -1       748-5.00090E-06-6.77120E-05 2.89140E-05
 -1       749-4.39050E-05-1.00805E-02 1.95658E-04
 -1       750-5.40201E-05-1.45885E-02 4.32633E-04
 -1       751-5.36949E-05-1.47487E-02 4.57654E-04
 -1       752-5.33508E-05-1.38649E-02 3.69328E-04
 -1       753-5.69819E-05-1.49443E-02 3.98352E-04
 -1       754-5.50455E-05-1.44169E-02 3.87583E-04
 -1       755-5.66731E-05-1.42201E-02 3.23153E-04
 -1       756-5.47613E-05-1.50855E-02 4.68892E-04
 -1       757 1.32831E-05-1.18109E-03 1.51374E-04
 -1       758 1.32871E-05-1.32720E-03 1.72298E-04
 -1       759 1.44178E-05-1.01088E-03 1.46896E-04
 -1       760 1.27485E-05-1.56492E-03 2.13930E-04
 -1       761 1.13021E-05-1.81499E-03 2.37506E-04
 -1       762 1.32104E-05-1.37632E-03 2.16214E-04
 -1       763-3.84885E-05-1.17001E-02 4.73952E-04
 -1       764-3.54940E-05-1.11033E-02 4.65062E-04
 -1       765-3.72506E-05-1.14670E-02 4.64893E-04
 -1       766-6.11518E-05-1.49581E-02 2.90302E-04
 -1       767-6.34839E-05-1.47516E-02 2.02487E-04
 -1       768-6.03227E-05-1.45663E-02 2.65998E-04
 -1       769-5.87860E-05-1.40133E-02 2.41151E-04
 -1       770-6.27535E-05-1.54863E-02 3.11231E-04
 -1       771-5.99758E-05-1.53005E-02 3.62497E-04
 -1       772-5.87864E-05-1.54719E-02 4.13166E-04
 -1       773-6.69851E-05-1.50335E-02 1.41893E-04
 -1       774-6.75671E-05-1.55863E-02 1.94953E-04
 -1       775-5.71442E-05-1.55343E-02 4.61642E-04
 -1       776-5.62558E-05-1.55038E-02 4.78752E-04
 -1       777-5.57279E-05-1.53865E-02 4.75845E-04
 -1       778 9.59893E-06-6.69312E-05 4.67659E-05
 -1       779 9.13327E-06-9.55401E-05 6.22903E-05
 -1       780 9.65745E-06-1.56471E-04 8.29300E-05
 -1       781 6.87197E-06-1.17746E-04 7.41005E-05
 -1       782 4.06520E-06-1.18515E-04 7.60400E-05
 -1       783 1.16989E-05-9.65484E-05 4.92322E-05
 -1       784-5.99295E-05-1.56906E-02 4.00447E-04
 -1       785-5.60291E-05-1.52974E-02 4.54942E-04
 -1       786-5.81908E-05-1.54653E-02 4.17960E-04
 -1       787-5.63358E-05-1.50448E-02 4.13436E-04
 -1       788 6.85651E-06-2.50209E-03 2.23031E-04
 -1       789 8.99755E-06-2.26262E-03 2.38963E-04
 -1       790 7.08959E-06-2.25535E-03 1.91609E-04
 -1       791 5.82331E-06-2.76383E-03 2.42909E-04
 -1       792 9.79555E-06-2.07656E-03 2.57022E-04
 -1       793 8.10454E-06-2.31264E-03 2.79071E-04
 -1       794 9.09321E-06-1.86086E-03 2.66122E-04
 -1       795 5.92168E-06-2.59053E-03 3.02100E-04
 -1       796 4.88473E-06-2.39093E-03 3.03151E-04
 -1       797 4.96571E-06-3.00528E-03 2.73796E-04
 -1       798 6.31600E-06-2.73974E-03 2.90147E-04
 -1       799 3.70108E-06-2.82295E-03 3.19897E-04
 -1       800 6.92332E-06-1.70819E-03 2.66362E-04
 -1       801 5.18738E-06-1.96086E-03 2.82995E-04
 -1       802 2.45624E-06-2.17861E-03 2.96282E-04
 -1       803-3.24233E-05-9.93249E-03 3.57969E-04
 -1       804-2.94428E-05-9.60977E-03 3.98866E-04
 -1       805-3.05139E-05-9.94886E-03 4.24351E-04
 -1       806-2.82412E-05-9.18252E-03 3.63633E-04
 -1       807-2.66665E-05-9.19907E-03 4.24892E-04
 -1       808-2.72036E-05-8.81330E-03 3.35786E-04
 -1       809-3.20265E-05-1.03464E-02 4.47594E-04
 -1       810-3.03889E-05-1.00213E-02 4.59965E-04
 -1       811-3.35161E-05-1.06797E-02 4.60150E-04
 -1       812-2.51665E-05-8.93371E-03 4.44132E-04
 -1       813-2.73530E-05-9.35815E-03 4.56785E-04
 -1       814-2.92465E-05-9.70659E-03 4.63259E-04
 -1       815-2.02505E-05-7.40325E-03 3.11322E-04
 -1       816-1.75056E-05-7.07839E-03 3.36349E-04
 -1       817-2.15582E-05-7.76134E-03 3.30305E-04
 -1       818-1.49212E-05-6.77750E-03 3.72585E-04
 -1       819-1.62194E-05-7.09580E-03 3.98596E-04
 -1       820-1.35220E-05-6.37850E-03 3.37263E-04
 -1       821-1.26583E-05-6.39612E-03 3.93882E-04
 -1       822-1.24383E-05-6.03602E-03 3.09317E-04
 -1       823-1.80718E-05-7.48003E-03 4.16145E-04
 -1       824-1.68611E-05-7.17415E-03 4.28762E-04
 -1       825-2.22597E-05-8.08131E-03 3.64635E-04
 -1       826-1.94604E-05-7.71682E-03 3.96766E-04
 -1       827-1.97083E-05-7.79642E-03 4.32216E-04
 -1       828-1.18237E-05-6.15173E-03 4.09486E-04
 -1       829-1.43114E-05-6.54526E-03 4.24459E-04
 -1       830-1.64884E-05-6.87040E-03 4.33106E-04
 -1       831-5.86189E-06-4.75685E-03 2.77545E-04
 -1       832-3.38723E-06-4.47022E-03 2.96896E-04
 -1       833-7.08221E-06-5.07823E-03 2.97161E-04
 -1       834-1.43612E-06-4.20829E-03 3.25755E-04
 -1       835-2.94463E-06-4.48946E-03 3.51739E-04
 -1       836 1.45897E-07-3.85958E-03 2.91131E-04
 -1       837 7.68944E-08-3.87899E-03 3.39882E-04
 -1       838 1.21038E-06-3.56415E-03 2.63824E-04
 -1       839-4.91885E-06-4.83124E-03 3.71095E-04
 -1       840-4.53835E-06-4.56087E-03 3.78865E-04
 -1       841-7.92391E-06-5.36868E-03 3.30442E-04
 -1       842-5.69035E-06-5.04178E-03 3.56134E-04
 -1       843-6.83982E-06-5.11548E-03 3.88498E-04
 -1       844 2.75035E-09-3.67087E-03 3.49950E-04
 -1       845-2.80908E-06-4.01065E-03 3.67754E-04
 -1       846-5.30844E-06-4.29449E-03 3.79149E-04
 -1       847 1.24666E-05-2.00477E-04 8.78375E-05
 -1       848 1.33448E-05-1.59214E-04 6.77479E-05
 -1       849 1.43984E-05-2.39990E-04 8.74510E-05
 -1       850 1.52052E-05-3.31108E-04 1.03746E-04
 -1       851 1.56264E-05-4.47967E-04 1.21232E-04
 -1       852 1.07106E-06-1.18956E-04 7.57042E-05
 -1       853 1.58870E-05-5.62475E-04 1.33250E-04
 -1       854-2.48064E-05-8.44987E-03 3.46217E-04
 -1       855-2.28491E-05-8.40382E-03 4.09650E-04
 -1       856-1.01663E-05-5.70309E-03 3.16453E-04
 -1       857-8.93190E-06-5.66405E-03 3.73693E-04
 -1       858 3.21196E-06-3.28296E-03 2.66257E-04
 -1       859 3.50798E-06-3.25505E-03 3.13413E-04
 -1       860 1.55205E-05-8.56632E-04 1.50931E-04
 -1       861 1.50423E-05-9.88502E-04 1.79563E-04
 -1       862 1.37227E-05-1.16266E-03 2.05333E-04
 -1       863 1.58621E-05-7.16875E-04 1.44112E-04
 -1       864 1.10270E-05-1.38331E-03 2.34693E-04
 -1       865 6.05559E-06-1.52326E-03 2.55424E-04
 -1       866-2.18166E-05-8.20882E-03 4.43501E-04
 -1       867-2.34901E-05-8.57869E-03 4.41118E-04
 -1       868-9.07316E-06-5.48861E-03 4.02560E-04
 -1       869-1.03018E-05-5.82550E-03 4.03752E-04
 -1       870 1.81417E-06-3.11203E-03 3.34672E-04
 -1       871 1.25689E-06-3.39369E-03 3.40676E-04
 -1       872-8.22843E-05-1.63408E-02-9.90997E-05
 -1       873-7.85330E-05-1.55821E-02-9.90778E-05
 -1       874 4.20147E-06 3.80573E-06-7.84998E-06
 -1       875 6.43669E-06-4.44487E-05-1.61395E-05
 -1       876 7.87722E-06-1.61216E-04-2.39423E-05
 -1       877 6.94207E-06-6.29340E-04-3.89602E-05
 -1       878 7.99553E-06-3.56038E-04-3.14606E-05
 -1       879 2.48625E-06-1.37055E-03-5.21435E-05
 -1       880 4.96530E-06-9.70335E-04-4.59600E-05
 -1       881-3.85688E-06-2.31455E-03-6.33048E-05
 -1       882-6.37644E-07-1.82029E-03-5.79883E-05
 -1       883-1.09820E-05-3.41553E-03-7.24494E-05
 -1       884-7.37759E-06-2.84744E-03-6.82423E-05
 -1       885-1.87167E-05-4.64058E-03-7.98992E-05
 -1       886-1.48437E-05-4.01431E-03-7.65331E-05
 -1       887-3.07037E-05-6.64766E-03-8.83194E-05
 -1       888-2.66129E-05-5.95893E-03-8.58609E-05
 -1       889-2.26740E-05-5.28933E-03-8.31487E-05
 -1       890-3.88809E-05-8.06963E-03-9.22491E-05
 -1       891-3.47565E-05-7.35186E-03-9.03934E-05
 -1       892-4.29438E-05-8.79796E-03-9.37770E-05
 -1       893-5.10997E-05-1.02811E-02-9.61384E-05
 -1       894-4.70279E-05-9.53582E-03-9.51231E-05
 -1       895-5.91749E-05-1.17863E-02-9.76860E-05
 -1       896-5.51798E-05-1.10318E-02-9.69942E-05
 -1       897-6.70468E-05-1.33029E-02-9.85803E-05
 -1       898-6.31361E-05-1.25438E-02-9.82325E-05
 -1       899-7.47509E-05-1.48228E-02-9.90069E-05
 -1       900-7.09318E-05-1.40629E-02-9.88385E-05
 -1       901-8.52031E-05-1.46614E-02-4.00284E-04
 -1       902-8.41502E-05-1.49256E-02-3.39605E-04
 -1       903-9.12373E-05-1.59505E-02-3.90710E-04
 -1       904-6.42197E-05-1.02807E-02-4.13106E-04
 -1       905-6.04123E-05-9.62219E-03-4.06118E-04
 -1       906-6.37470E-05-1.04981E-02-3.95699E-04
 -1       907-1.64053E-05-4.22120E-03-2.15573E-04
 -1       908-2.42608E-05-4.78527E-03-2.79544E-04
 -1       909-1.89083E-05-3.84459E-03-2.72354E-04
 -1       910-2.77023E-05-3.54172E-03-3.14410E-04
 -1       911-3.15416E-05-3.31831E-03-3.10751E-04
 -1       912-2.49366E-05-2.99387E-03-2.96651E-04
 -1       913-7.17255E-05-1.20440E-02-3.96473E-04
 -1       914-6.87897E-05-1.18712E-02-3.55159E-04
 -1       915-7.47110E-05-1.27758E-02-3.79902E-04
 -1       916 4.80382E-06-8.90420E-04-1.42535E-04
 -1       917 9.94024E-06-5.70441E-04-9.46406E-05
 -1       918 9.22023E-06-9.60821E-04-1.04800E-04
 -1       919-6.21001E-05-1.08207E-02-3.34624E-04
 -1       920-6.72047E-05-1.12338E-02-3.90407E-04
 -1       921 1.12295E-05-5.87710E-04-7.12553E-05
 -1       922-5.50062E-05-9.08435E-03-3.74679E-04
 -1       923-5.20780E-05-9.08572E-03-3.29144E-04
 -1       924-5.76569E-05-9.74990E-03-3.61920E-04
 -1       925-2.65265E-05-4.14935E-03-3.15199E-04
 -1       926-3.16082E-05-4.11972E-03-3.31910E-04
 -1       927-4.68548E-05-7.58298E-03-3.68416E-04
 -1       928-4.33670E-05-7.65735E-03-3.18956E-04
 -1       929-5.02039E-05-8.33378E-03-3.63160E-04
 -1       930-1.95992E-05-3.26825E-03-2.85404E-04
 -1       931-3.88241E-05-6.21593E-03-3.51567E-04
 -1       932-3.45899E-05-6.28269E-03-3.04744E-04
 -1       933-4.18433E-05-6.93450E-03-3.49338E-04
 -1       934-2.13379E-06-2.27493E-03-1.82155E-04
 -1       935-5.24254E-06-2.88158E-03-1.65258E-04
 -1       936-1.02587E-05-2.92056E-03-2.33169E-04
 -1       937-3.04115E-05-4.91890E-03-3.27165E-04
 -1       938-3.35932E-05-5.59859E-03-3.30787E-04
 -1       939-7.34200E-07-2.32371E-03-1.32205E-04
 -1       940-1.67176E-05-2.60022E-03-2.68145E-04
 -1       941-8.69297E-05-1.51604E-02-3.71383E-04
 -1       942-9.14680E-05-1.59832E-02-3.89995E-04
 -1       943-7.27541E-06-1.69944E-03-2.17406E-04
 -1       944-8.49659E-07-1.76706E-03-1.88039E-04
 -1       945-8.05480E-06-2.21941E-03-2.28858E-04
 -1       946-2.18522E-05-5.02084E-03-2.18859E-04
 -1       947-6.19905E-06-9.23221E-04-1.76503E-04
 -1       948-1.52496E-06-1.25789E-03-1.83220E-04
 -1       949-1.78169E-05-4.64644E-03-1.53872E-04
 -1       950-3.45184E-05-4.73910E-03-3.45990E-04
 -1       951-3.85276E-05-4.55492E-03-3.45235E-04
 -1       952-2.78132E-05-5.65437E-03-2.58344E-04
 -1       953-3.12278E-05-6.46213E-03-2.20546E-04
 -1       954-2.53046E-05-5.73932E-03-1.72793E-04
 -1       955-3.68377E-05-7.00225E-03-2.72397E-04
 -1       956-4.03290E-05-7.85604E-03-2.30161E-04
 -1       957-3.53923E-05-7.26733E-03-1.87057E-04
 -1       958-2.50692E-05-1.46236E-03-2.24898E-04
 -1       959-3.02810E-05-1.36996E-03-2.03204E-04
 -1       960-2.74157E-05-1.06967E-03-1.91288E-04
 -1       961-7.15975E-05-1.17168E-02-4.19303E-04
 -1       962-7.07288E-05-1.13654E-02-4.21628E-04
 -1       963-6.76707E-05-1.09647E-02-4.15666E-04
 -1       964-4.58447E-05-8.41178E-03-2.82798E-04
 -1       965-4.92976E-05-9.29976E-03-2.36974E-04
 -1       966-4.43164E-05-8.69772E-03-1.93608E-04
 -1       967-5.46902E-05-9.86556E-03-2.90009E-04
 -1       968-5.91817E-05-1.09711E-02-2.41748E-04
 -1       969-5.31332E-05-1.01676E-02-1.98127E-04
 -1       970-3.12683E-05-1.75287E-03-2.31031E-04
 -1       971-6.53442E-05-1.17829E-02-2.85059E-04
 -1       972-6.16892E-05-1.16630E-02-2.00911E-04
 -1       973-6.66930E-05-1.24066E-02-2.27999E-04
 -1       974-7.72837E-05-1.40694E-02-2.73997E-04
 -1       975-8.21181E-05-1.52117E-02-2.45342E-04
 -1       976-6.43404E-05-1.00195E-02-4.15409E-04
 -1       977-7.59586E-05-1.44204E-02-1.87550E-04
 -1       978-1.28621E-05-2.93818E-04-1.07736E-04
 -1       979-5.71270E-06-1.17839E-04-6.86625E-05
 -1       980-3.07155E-06-2.81034E-04-1.03869E-04
 -1       981-1.03263E-05-5.29867E-05-4.32323E-05
 -1       982-3.79311E-06-2.88633E-05-3.16183E-05
 -1       983-5.62250E-05-8.80540E-03-4.01158E-04
 -1       984-5.74627E-05-8.59700E-03-4.05440E-04
 -1       985-5.25104E-05-8.07511E-03-3.95983E-04
 -1       986-3.10050E-05-2.83854E-03-2.93321E-04
 -1       987-3.63072E-05-3.18198E-03-2.94616E-04
 -1       988-3.53323E-05-2.67933E-03-2.64504E-04
 -1       989-9.37133E-06-5.48635E-04-1.44488E-04
 -1       990-1.84907E-05-8.51698E-04-1.77952E-04
 -1       991-4.86153E-05-7.39097E-03-3.87516E-04
 -1       992-5.07429E-05-7.18955E-03-3.90921E-04
 -1       993-4.50806E-05-6.68797E-03-3.79876E-04
 -1       994-4.12287E-05-6.03415E-03-3.68955E-04
 -1       995-4.42577E-05-5.84201E-03-3.71307E-04
 -1       996-3.77836E-05-5.40839E-03-3.58407E-04
 -1       997 7.05320E-06-4.36940E-04-9.94683E-05
 -1       998-3.49483E-07-5.80144E-04-1.37210E-04
 -1       999 6.07349E-06-1.79236E-04-6.29087E-05
 -1      1000 3.23199E-06-3.49058E-05-2.07138E-05
 -1      1001 1.04205E-05-2.72292E-04-5.74295E-05
 -1      1002-8.75770E-05-1.58058E-02-3.11749E-04
 -1      1003-8.69651E-05-1.62939E-02-2.28767E-04
 -1      1004-7.86888E-05-1.37608E-02-3.53283E-04
 -1      1005-1.63166E-06-3.44460E-05-3.57529E-05
 -1      1006 2.61299E-06-5.11904E-05-3.78800E-05
 -1      1007 4.92582E-07-9.18867E-05-5.87323E-05
 -1      1008-7.17886E-05-1.28376E-02-3.02528E-04
 -1      1009-1.08824E-05-3.40673E-03-2.10581E-04
 -1      1010-1.05861E-05-3.62946E-03-1.56693E-04
 -1      1011 4.22754E-06-1.68730E-03-1.25277E-04
 -1      1012 4.68469E-06-1.32977E-03-1.50953E-04
 -1      1013-2.44304E-05-2.44728E-03-2.76959E-04
 -1      1014-3.05524E-05-2.33431E-03-2.70724E-04
 -1      1015-2.46890E-05-1.89015E-03-2.50646E-04
 -1      1016-7.99210E-05-1.35280E-02-4.09134E-04
 -1      1017 2.81133E-06-2.44048E-04-8.81248E-05
 -1      1018-9.35002E-05-1.61250E-02-4.26645E-04
 -1      1019-9.17802E-05-1.64381E-02-3.42167E-04
 -1      1020-1.93484E-05-5.47958E-04-1.44767E-04
 -1      1021-7.10457E-05-1.33905E-02-2.00893E-04
 -1      1022-7.96945E-05-1.32491E-02-4.26430E-04
 -1      1023-8.46987E-05-1.43366E-02-4.24616E-04
 -1      1024-8.27852E-05-1.38691E-02-4.26409E-04
 -1      1025-2.85758E-05-8.62621E-04-1.54535E-04
 -1      1026-8.91752E-05-1.52338E-02-4.26958E-04
 -1      1027-8.95329E-05-1.53339E-02-4.19920E-04
 -1      1028-8.61389E-05-1.45746E-02-4.26490E-04
 -1      1029-8.48186E-05-1.45574E-02-3.89707E-04
 -1      1030-8.28942E-05-1.39826E-02-4.09950E-04
 -1      1031-6.82052E-05-1.10391E-02-3.60691E-04
 -1      1032-6.67537E-05-1.04521E-02-3.97379E-04
 -1      1033-7.07040E-05-1.12932E-02-4.08817E-04
 -1      1034-6.03439E-05-8.99073E-03-3.88794E-04
 -1      1035-6.35697E-05-9.73962E-03-3.92300E-04
 -1      1036-5.42531E-05-7.56789E-03-3.76285E-04
 -1      1037-5.73770E-05-8.30083E-03-3.82395E-04
 -1      1038-7.49167E-05-1.22196E-02-4.23849E-04
 -1      1039-7.74420E-05-1.27605E-02-4.15400E-04
 -1      1040-4.85353E-05-6.19956E-03-3.59107E-04
 -1      1041-5.14332E-05-6.90201E-03-3.67757E-04
 -1      1042-4.33021E-05-4.90410E-03-3.36482E-04
 -1      1043-4.59752E-05-5.56544E-03-3.48065E-04
 -1      1044-7.39544E-05-1.21141E-02-3.94310E-04
 -1      1045-3.92437E-05-3.77219E-03-3.00540E-04
 -1      1046-4.10424E-05-4.29746E-03-3.18559E-04
 -1      1047-3.58564E-05-3.85892E-03-3.26794E-04
 -1      1048-6.76630E-05-1.07076E-02-4.18821E-04
 -1      1049-6.11181E-05-9.35922E-03-4.11298E-04
 -1      1050-5.42553E-05-7.92703E-03-3.99201E-04
 -1      1051-4.76304E-05-6.54556E-03-3.82371E-04
 -1      1052-4.12791E-05-5.22529E-03-3.59952E-04
 -1      1053-9.43252E-05-1.63164E-02-4.24993E-04
 -1      1054-7.49806E-05-1.26280E-02-3.58334E-04
 -1      1055-1.72821E-05-1.17592E-03-2.04706E-04
 -1      1056-1.65655E-05-1.59266E-03-2.31585E-04
 -1      1057-1.63010E-05-2.09632E-03-2.53877E-04
 -1      1058-7.94351E-05-1.32941E-02-4.00802E-04
 -1      1059-2.58440E-05-7.39195E-04-1.60841E-04
 -1      1060-2.60302E-05-5.49064E-04-1.30380E-04
 -1      1061-1.51500E-05-1.48211E-04-7.50285E-05
 -1      1062-2.22193E-05-3.14936E-04-1.04330E-04
 -1      1063-1.92452E-05-1.53074E-04-6.90662E-05
 -1      1064-3.36279E-05-2.15871E-03-2.38405E-04
 -1      1065-9.95757E-06-1.30097E-03-2.06815E-04
 -1      1066-7.57436E-05-1.25935E-02-4.17971E-04
 -1      1067-6.73183E-06-2.90509E-07-1.03716E-05
 -1      1068-8.86622E-05-1.62450E-02-2.84095E-04
 -1      1069-9.04282E-05-1.66231E-02-2.84097E-04
 -1      1070-9.38380E-05-1.66369E-02-3.71839E-04
 -1      1071-8.68075E-05-1.66962E-02-1.70975E-04
 -1      1072-8.30152E-05-1.59383E-02-1.71033E-04
 -1      1073-8.88151E-05-1.66678E-02-2.28184E-04
 -1      1074 1.83087E-06-2.88887E-06-5.21221E-06
 -1      1075 5.67318E-06-4.49894E-05-1.87570E-05
 -1      1076 1.51433E-06-7.83576E-06-8.85950E-06
 -1      1077-1.55102E-05-6.44145E-05-4.60284E-05
 -1      1078-1.17244E-05-2.65185E-05-2.89401E-05
 -1      1079-6.05831E-06-1.20955E-05-1.97522E-05
 -1      1080-1.78734E-05-1.10363E-04-5.35795E-05
 -1      1081-2.02116E-05-1.83028E-04-6.69684E-05
 -1      1082-1.30904E-05-9.43788E-05-5.91193E-05
 -1      1083-1.79854E-05-1.12011E-04-6.08355E-05
 -1      1084-1.77316E-05-1.51689E-04-7.28339E-05
 -1      1085-2.39831E-05-3.70593E-04-9.96658E-05
 -1      1086-2.26665E-05-2.65745E-04-8.53125E-05
 -1      1087-2.12663E-05-2.27509E-04-8.69018E-05
 -1      1088-2.46433E-05-4.88478E-04-1.05705E-04
 -1      1089-2.57675E-05-6.23966E-04-1.18270E-04
 -1      1090-2.45735E-05-4.23962E-04-1.18202E-04
 -1      1091-2.70862E-05-9.45893E-04-1.35472E-04
 -1      1092-2.62374E-05-7.81862E-04-1.24892E-04
 -1      1093-2.77056E-05-7.24350E-04-1.41948E-04
 -1      1094-2.77196E-05-8.00142E-04-1.60487E-04
 -1      1095-2.62672E-05-6.41882E-04-1.46676E-04
 -1      1096-3.02986E-05-1.39369E-03-1.78178E-04
 -1      1097-2.94438E-05-1.20015E-03-1.66917E-04
 -1      1098-2.94467E-05-1.05516E-03-1.71000E-04
 -1      1099-2.91406E-05-1.21560E-03-1.98489E-04
 -1      1100-2.85772E-05-9.65266E-04-1.75982E-04
 -1      1101-3.21452E-05-1.79935E-03-2.05659E-04
 -1      1102-3.13738E-05-1.58467E-03-1.95062E-04
 -1      1103-3.09916E-05-1.55678E-03-2.17356E-04
 -1      1104-3.28419E-05-2.23632E-03-2.07480E-04
 -1      1105-3.20636E-05-2.00105E-03-1.98398E-04
 -1      1106-3.27161E-05-1.95152E-03-2.35917E-04
 -1      1107-3.48576E-05-2.75144E-03-2.31052E-04
 -1      1108-3.41000E-05-2.49663E-03-2.22525E-04
 -1      1109-3.47070E-05-2.41387E-03-2.51638E-04
 -1      1110-3.73076E-05-3.27543E-03-2.64156E-04
 -1      1111-3.64325E-05-3.00420E-03-2.55958E-04
 -1      1112-3.60380E-05-2.92727E-03-2.80385E-04
 -1      1113-3.87709E-05-3.85720E-03-2.62774E-04
 -1      1114-3.77047E-05-3.56973E-03-2.55603E-04
 -1      1115-3.79964E-05-3.47267E-03-2.98638E-04
 -1      1116-4.10148E-05-4.42109E-03-2.80654E-04
 -1      1117-4.00484E-05-4.12045E-03-2.74325E-04
 -1      1118-4.03238E-05-4.03215E-03-3.09679E-04
 -1      1119-4.34716E-05-5.03843E-03-2.98857E-04
 -1      1120-4.23249E-05-4.72540E-03-2.92845E-04
 -1      1121-4.23166E-05-4.59780E-03-3.27662E-04
 -1      1122-4.59306E-05-5.69411E-03-3.07982E-04
 -1      1123-4.47303E-05-5.36983E-03-3.02841E-04
 -1      1124-4.47458E-05-5.23183E-03-3.42371E-04
 -1      1125-4.84376E-05-6.34575E-03-3.18216E-04
 -1      1126-4.71847E-05-6.01181E-03-3.13546E-04
 -1      1127-4.73456E-05-5.88032E-03-3.53685E-04
 -1      1128-5.11627E-05-7.03998E-03-3.24672E-04
 -1      1129-4.98364E-05-6.69749E-03-3.20799E-04
 -1      1130-5.00782E-05-6.54849E-03-3.63545E-04
 -1      1131-5.39203E-05-7.72322E-03-3.32682E-04
 -1      1132-5.25255E-05-7.37347E-03-3.29199E-04
 -1      1133-5.29245E-05-7.23325E-03-3.72084E-04
 -1      1134-5.68377E-05-8.44622E-03-3.37109E-04
 -1      1135-5.54064E-05-8.09012E-03-3.34264E-04
 -1      1136-5.58778E-05-7.93266E-03-3.79418E-04
 -1      1137-5.97893E-05-9.15296E-03-3.43210E-04
 -1      1138-5.83149E-05-8.79166E-03-3.40746E-04
 -1      1139-5.89059E-05-8.64456E-03-3.85650E-04
 -1      1140-6.28586E-05-9.89339E-03-3.45188E-04
 -1      1141-6.13345E-05-9.52772E-03-3.43253E-04
 -1      1142-6.20057E-05-9.36400E-03-3.90634E-04
 -1      1143-6.60551E-05-1.06192E-02-3.50261E-04
 -1      1144-6.44510E-05-1.02500E-02-3.48683E-04
 -1      1145-6.51948E-05-1.00950E-02-3.94894E-04
 -1      1146-6.70862E-05-1.12845E-02-3.04968E-04
 -1      1147-6.54878E-05-1.09125E-02-3.03960E-04
 -1      1148-6.76993E-05-1.07451E-02-3.83485E-04
 -1      1149-7.25097E-05-1.21968E-02-3.42720E-04
 -1      1150-7.08368E-05-1.18224E-02-3.41866E-04
 -1      1151-6.99274E-05-1.14123E-02-3.65549E-04
 -1      1152-6.97571E-05-1.11662E-02-3.91864E-04
 -1      1153-7.23912E-05-1.17030E-02-4.02983E-04
 -1      1154-7.36751E-05-1.28293E-02-3.01251E-04
 -1      1155-7.20107E-05-1.24535E-02-3.00672E-04
 -1      1156-7.46092E-05-1.23708E-02-3.79627E-04
 -1      1157-7.87102E-05-1.35394E-02-3.50438E-04
 -1      1158-7.70308E-05-1.31627E-02-3.49968E-04
 -1      1159-7.73751E-05-1.29609E-02-3.83824E-04
 -1      1160-8.27514E-05-1.45487E-02-3.35428E-04
 -1      1161-8.10126E-05-1.41711E-02-3.35189E-04
 -1      1162-8.39204E-05-1.42699E-02-4.01434E-04
 -1      1163-8.07349E-05-1.38839E-02-3.62656E-04
 -1      1164-8.11722E-05-1.36381E-02-4.05738E-04
 -1      1165-8.50807E-05-1.52281E-02-3.14361E-04
 -1      1166-8.33337E-05-1.48501E-02-3.14243E-04
 -1      1167-8.59136E-05-1.48588E-02-3.81393E-04
 -1      1168-8.95637E-05-1.60176E-02-3.35638E-04
 -1      1169-8.78048E-05-1.56396E-02-3.35599E-04
 -1      1170-8.92331E-05-1.55718E-02-3.81536E-04
 -1      1171-9.17984E-05-1.62107E-02-3.70588E-04
 -1      1172 8.69744E-06-1.40990E-04-3.21165E-05
 -1      1173 1.07314E-05-3.15776E-04-4.80839E-05
 -1      1174 7.24336E-06-1.23819E-04-3.96101E-05
 -1      1175 1.03780E-05-4.70180E-04-5.18996E-05
 -1      1176 9.37339E-06-7.66123E-04-6.42253E-05
 -1      1177 1.12301E-05-4.14646E-04-6.56243E-05
 -1      1178 6.22288E-06-1.32240E-03-8.65586E-05
 -1      1179 3.00992E-06-1.75581E-03-9.70346E-05
 -1      1180 8.85547E-06-9.71140E-04-7.98382E-05
 -1      1181 1.04620E-05-7.66590E-04-8.74307E-05
 -1      1182 6.87263E-06-1.30241E-03-1.15881E-04
 -1      1183 5.06244E-07-2.07332E-03-9.82721E-05
 -1      1184-3.24113E-06-2.58000E-03-1.06506E-04
 -1      1185 1.79723E-06-1.99557E-03-1.29184E-04
 -1      1186-7.90789E-06-3.23771E-03-1.16146E-04
 -1      1187-1.21672E-05-3.82061E-03-1.22780E-04
 -1      1188-5.06683E-06-2.86952E-03-1.22738E-04
 -1      1189-2.85330E-06-2.59873E-03-1.48709E-04
 -1      1190-7.85932E-06-3.24735E-03-1.61516E-04
 -1      1191-1.57001E-05-4.33063E-03-1.19529E-04
 -1      1192-2.00202E-05-4.96452E-03-1.24424E-04
 -1      1193-1.41576E-05-4.12781E-03-1.55777E-04
 -1      1194-2.34824E-05-5.51598E-03-1.33155E-04
 -1      1195-2.77779E-05-6.18818E-03-1.37278E-04
 -1      1196-2.15381E-05-5.18579E-03-1.63448E-04
 -1      1197-3.26323E-05-6.95896E-03-1.43325E-04
 -1      1198-3.70313E-05-7.66567E-03-1.46382E-04
 -1      1199-3.04293E-05-6.55720E-03-1.62277E-04
 -1      1200-2.81637E-05-6.09948E-03-1.96843E-04
 -1      1201-3.33143E-05-6.86163E-03-2.04391E-04
 -1      1202-4.13479E-05-8.38493E-03-1.48832E-04
 -1      1203-4.56849E-05-9.11454E-03-1.51016E-04
 -1      1204-3.92956E-05-7.96444E-03-1.69157E-04
 -1      1205-3.78073E-05-7.56136E-03-2.08802E-04
 -1      1206-4.23400E-05-8.27457E-03-2.12405E-04
 -1      1207-5.00004E-05-9.85294E-03-1.52750E-04
 -1      1208-5.42969E-05-1.05980E-02-1.54108E-04
 -1      1209-4.80576E-05-9.41885E-03-1.74056E-04
 -1      1210-4.67804E-05-8.99862E-03-2.15520E-04
 -1      1211-5.12305E-05-9.73197E-03-2.17992E-04
 -1      1212-5.84683E-05-1.13482E-02-1.55201E-04
 -1      1213-6.26117E-05-1.21022E-02-1.56017E-04
 -1      1214-5.72295E-05-1.10022E-02-1.77278E-04
 -1      1215-5.61254E-05-1.05691E-02-2.20182E-04
 -1      1216-6.04520E-05-1.13163E-02-2.21701E-04
 -1      1217-6.72277E-05-1.29679E-02-1.55857E-04
 -1      1218-7.12282E-05-1.37262E-02-1.56183E-04
 -1      1219-6.50897E-05-1.24753E-02-1.70330E-04
 -1      1220-6.41939E-05-1.20346E-02-2.14549E-04
 -1      1221-6.89047E-05-1.28979E-02-2.14695E-04
 -1      1222-7.36322E-05-1.42418E-02-1.49082E-04
 -1      1223-7.74990E-05-1.50009E-02-1.49156E-04
 -1      1224-7.35071E-05-1.39052E-02-1.94264E-04
 -1      1225-8.06343E-05-1.53967E-02-1.79917E-04
 -1      1226-7.90630E-05-1.48162E-02-2.16911E-04
 -1      1227-8.45479E-05-1.57528E-02-2.37065E-04
 -1      1228-1.90124E-06-9.38380E-06-1.52687E-05
 -1      1229-3.18969E-06-8.26047E-06-1.36887E-05
 -1      1230-6.95825E-06-4.11672E-05-3.84072E-05
 -1      1231-1.33735E-06-1.22441E-05-1.72437E-05
 -1      1232-6.16930E-07-1.17160E-05-1.78093E-05
 -1      1233-2.56339E-06-3.26531E-05-3.41721E-05
 -1      1234 1.67109E-06-1.42342E-05-1.80827E-05
 -1      1235 1.14266E-06-1.71355E-05-2.11807E-05
 -1      1236 4.20827E-07-2.59215E-05-2.98431E-05
 -1      1237-6.03873E-07-6.04449E-05-4.81850E-05
 -1      1238 1.84349E-06-7.14957E-05-4.86197E-05
 -1      1239 1.85027E-06-1.07417E-05-1.30544E-05
 -1      1240 3.21378E-06-4.44418E-05-2.94071E-05
 -1      1241-9.53138E-05-1.65001E-02-4.27726E-04
 -1      1242-9.48304E-05-1.64804E-02-4.17296E-04
 -1      1243-9.28099E-05-1.60541E-02-4.16862E-04
 -1      1244-9.35007E-05-1.64095E-02-3.90880E-04
 -1      1245-9.57741E-05-1.65959E-02-4.27920E-04
 -1      1246-9.55482E-05-1.66225E-02-4.18238E-04
 -1      1247-9.40028E-05-1.62207E-02-4.28279E-04
 -1      1248-9.39785E-05-1.64396E-02-3.99850E-04
 -1      1249-9.27592E-05-1.64676E-02-3.62821E-04
 -1      1250-9.29422E-05-1.61335E-02-4.11976E-04
 -1      1251-9.06537E-05-1.66395E-02-2.81781E-04
 -1      1252-8.95177E-05-1.58782E-02-3.54419E-04
 -1      1253-9.08693E-05-1.63954E-02-3.21348E-04
 -1      1254-8.73222E-05-1.60497E-02-2.71498E-04
 -1      1255-8.47633E-05-1.47935E-02-3.72730E-04
 -1      1256-8.77693E-05-1.54382E-02-3.66797E-04
 -1      1257-8.82297E-05-1.53057E-02-3.95712E-04
 -1      1258-8.20353E-05-1.42111E-02-3.78688E-04
 -1      1259-8.14411E-05-1.43429E-02-3.46608E-04
 -1      1260-9.04255E-05-1.55921E-02-4.15250E-04
 -1      1261-8.73682E-05-1.49477E-02-4.18203E-04
 -1      1262-7.94028E-05-1.36444E-02-3.84668E-04
 -1      1263-8.25623E-05-1.40943E-02-4.04971E-04
 -1      1264-8.23791E-05-1.39322E-02-4.18439E-04
 -1      1265-8.50459E-05-1.44990E-02-4.15329E-04
 -1      1266-8.69494E-05-1.47851E-02-4.26009E-04
 -1      1267-8.58749E-05-1.53656E-02-3.25958E-04
 -1      1268-8.07567E-05-1.44977E-02-3.07881E-04
 -1      1269-7.97218E-05-1.46402E-02-2.59837E-04
 -1      1270-8.32009E-05-1.50686E-02-2.94453E-04
 -1      1271-7.80256E-05-1.39150E-02-3.15476E-04
 -1      1272-8.48764E-05-1.55088E-02-2.79390E-04
 -1      1273-9.17617E-05-1.57750E-02-4.26230E-04
 -1      1274-6.23299E-05-9.95071E-03-4.09797E-04
 -1      1275-6.20740E-05-1.00588E-02-4.02025E-04
 -1      1276-6.40369E-05-1.03895E-02-4.06177E-04
 -1      1277-6.43264E-05-1.01503E-02-4.15615E-04
 -1      1278-6.25078E-05-9.82104E-03-4.13420E-04
 -1      1279-6.57857E-05-1.07313E-02-4.07307E-04
 -1      1280-6.59559E-05-1.06221E-02-4.14427E-04
 -1      1281-6.60262E-05-1.04942E-02-4.17443E-04
 -1      1282-6.77207E-05-1.08363E-02-4.18955E-04
 -1      1283-6.60027E-05-1.03628E-02-4.17131E-04
 -1      1284-5.91023E-05-9.68678E-03-3.88280E-04
 -1      1285-6.07456E-05-1.01235E-02-3.79979E-04
 -1      1286-5.77759E-05-9.35317E-03-3.92659E-04
 -1      1287-5.63099E-05-9.41619E-03-3.68677E-04
 -1      1288-5.56300E-05-8.94511E-03-3.90479E-04
 -1      1289-5.83007E-05-9.21230E-03-4.03700E-04
 -1      1290-6.27333E-05-9.68851E-03-4.13429E-04
 -1      1291-6.08372E-05-9.49111E-03-4.11297E-04
 -1      1292-5.87929E-05-9.08213E-03-4.08493E-04
 -1      1293-6.29484E-05-1.06597E-02-3.68629E-04
 -1      1294-6.46937E-05-1.10276E-02-3.64668E-04
 -1      1295-6.54758E-05-1.08652E-02-3.93256E-04
 -1      1296-5.98596E-05-1.02833E-02-3.49107E-04
 -1      1297-6.75012E-05-1.10994E-02-4.05711E-04
 -1      1298-2.00969E-05-4.50335E-03-2.48105E-04
 -1      1299-2.14958E-05-4.30647E-03-2.76457E-04
 -1      1300-1.72433E-05-4.03331E-03-2.46208E-04
 -1      1301-1.91123E-05-4.61552E-03-2.17487E-04
 -1      1302-2.27487E-05-4.90416E-03-2.50805E-04
 -1      1303-1.45765E-05-3.62691E-03-2.42280E-04
 -1      1304-1.36065E-05-3.80641E-03-2.13446E-04
 -1      1305-1.68087E-05-4.43270E-03-1.86315E-04
 -1      1306-1.96058E-05-4.83505E-03-1.86906E-04
 -1      1307-1.32361E-05-3.92476E-03-1.86194E-04
 -1      1308-1.03785E-05-3.51884E-03-1.84924E-04
 -1      1309-2.50481E-05-4.46527E-03-3.00615E-04
 -1      1310-2.26162E-05-3.99790E-03-2.95215E-04
 -1      1311-2.84440E-05-4.52893E-03-3.21539E-04
 -1      1312-2.72019E-05-4.85376E-03-3.05141E-04
 -1      1313-2.88631E-05-5.18908E-03-3.05953E-04
 -1      1314-3.19956E-05-5.25559E-03-3.29273E-04
 -1      1315-3.03886E-05-5.62922E-03-2.97602E-04
 -1      1316-2.59189E-05-5.21435E-03-2.69994E-04
 -1      1317-2.47866E-05-5.33613E-03-2.38713E-04
 -1      1318-2.30459E-05-3.69997E-03-3.00670E-04
 -1      1319-1.90588E-05-3.55294E-03-2.80440E-04
 -1      1320-1.47014E-05-3.09593E-03-2.60741E-04
 -1      1321-1.45542E-05-3.37246E-03-2.53026E-04
 -1      1322-1.04221E-05-3.16061E-03-2.22956E-04
 -1      1323-2.96212E-05-3.43042E-03-3.13593E-04
 -1      1324-2.83096E-05-3.15535E-03-3.04463E-04
 -1      1325-2.62836E-05-3.26366E-03-3.05728E-04
 -1      1326-3.19066E-05-3.70081E-03-3.22335E-04
 -1      1327-3.37323E-05-3.58515E-03-3.19065E-04
 -1      1328-2.21557E-05-3.13176E-03-2.93658E-04
 -1      1329-2.36435E-05-3.40571E-03-3.01943E-04
 -1      1330-2.69915E-05-3.84222E-03-3.16738E-04
 -1      1331-2.90547E-05-4.13571E-03-3.25643E-04
 -1      1332-2.96444E-05-3.82702E-03-3.23309E-04
 -1      1333-3.37491E-05-3.99016E-03-3.30718E-04
 -1      1334-3.12411E-05-3.07528E-03-3.02337E-04
 -1      1335-2.79882E-05-2.91772E-03-2.96285E-04
 -1      1336-3.42375E-05-3.25170E-03-3.06721E-04
 -1      1337-3.39838E-05-3.00900E-03-2.96771E-04
 -1      1338-3.62484E-05-3.51626E-03-3.13320E-04
 -1      1339-2.08371E-05-2.79572E-03-2.83765E-04
 -1      1340-1.80797E-05-2.92715E-03-2.77323E-04
 -1      1341-2.05263E-05-2.52591E-03-2.75931E-04
 -1      1342-2.46293E-05-2.71568E-03-2.87425E-04
 -1      1343-2.78072E-05-2.64067E-03-2.85755E-04
 -1      1344-7.02957E-05-1.19578E-02-3.77397E-04
 -1      1345-7.17722E-05-1.23231E-02-3.67985E-04
 -1      1346-7.32223E-05-1.24095E-02-3.88668E-04
 -1      1347-6.94748E-05-1.16383E-02-3.93486E-04
 -1      1348-6.80050E-05-1.15521E-02-3.74085E-04
 -1      1349-7.38026E-05-1.23187E-02-4.08706E-04
 -1      1350-7.53246E-05-1.26848E-02-4.02407E-04
 -1      1351-7.17344E-05-1.18804E-02-4.10533E-04
 -1      1352-6.95169E-05-1.14754E-02-4.07981E-04
 -1      1353-7.36677E-05-1.21546E-02-4.18900E-04
 -1      1354-7.32984E-05-1.28070E-02-3.43971E-04
 -1      1355-7.03014E-05-1.23536E-02-3.30025E-04
 -1      1356-6.54589E-05-1.13450E-02-3.45107E-04
 -1      1357-6.70749E-05-1.18275E-02-3.21721E-04
 -1      1358-6.37217E-05-1.13006E-02-3.10815E-04
 -1      1359-6.85914E-05-1.23096E-02-2.93872E-04
 -1      1360-7.67088E-05-1.32678E-02-3.67229E-04
 -1      1361-7.52865E-05-1.32992E-02-3.28749E-04
 -1      1362-7.73644E-05-1.31518E-02-3.95849E-04
 -1      1363-7.78372E-05-1.30603E-02-4.14208E-04
 -1      1364 7.83976E-06-7.26478E-04-1.18222E-04
 -1      1365 9.89966E-06-7.53479E-04-1.00866E-04
 -1      1366 7.81795E-06-9.30406E-04-1.25306E-04
 -1      1367 6.29931E-06-6.45851E-04-1.21116E-04
 -1      1368 8.73606E-06-5.02690E-04-9.79664E-05
 -1      1369 4.97037E-06-1.10024E-03-1.47982E-04
 -1      1370 7.31436E-06-1.14301E-03-1.27507E-04
 -1      1371-4.04423E-08-9.12825E-04-1.61929E-04
 -1      1372 1.87595E-06-1.06908E-03-1.62761E-04
 -1      1373-3.67242E-06-1.08636E-03-1.81699E-04
 -1      1374-3.09751E-06-7.43314E-04-1.56984E-04
 -1      1375 2.54489E-06-7.29560E-04-1.42189E-04
 -1      1376 2.07918E-06-1.29719E-03-1.68595E-04
 -1      1377 3.92680E-06-5.10360E-04-1.19076E-04
 -1      1378 1.10608E-05-5.81594E-04-8.35885E-05
 -1      1379 1.03988E-05-4.10136E-04-7.52837E-05
 -1      1380 9.23390E-06-3.55449E-04-7.79368E-05
 -1      1381 4.91666E-06-1.50472E-03-1.39935E-04
 -1      1382-5.61294E-05-9.80838E-03-3.28163E-04
 -1      1383-5.83906E-05-1.03424E-02-3.12834E-04
 -1      1384-5.69392E-05-1.04161E-02-2.66664E-04
 -1      1385-6.05980E-05-1.08964E-02-2.90279E-04
 -1      1386-6.22646E-05-1.13769E-02-2.63706E-04
 -1      1387-6.96370E-05-1.13401E-02-4.17591E-04
 -1      1388-5.35235E-05-9.08555E-03-3.53433E-04
 -1      1389-5.48781E-05-9.41732E-03-3.46035E-04
 -1      1390-5.25743E-05-8.70765E-03-3.68988E-04
 -1      1391-5.10761E-05-8.70829E-03-3.47448E-04
 -1      1392-5.32777E-05-8.56983E-03-3.85276E-04
 -1      1393-5.33640E-05-9.47418E-03-3.10391E-04
 -1      1394-4.79016E-05-8.37425E-03-3.26220E-04
 -1      1395-4.89522E-05-8.74835E-03-3.06458E-04
 -1      1396-4.75358E-05-8.85349E-03-2.60724E-04
 -1      1397-5.05829E-05-9.19359E-03-2.85389E-04
 -1      1398-5.19707E-05-9.58281E-03-2.63979E-04
 -1      1399-3.30447E-05-4.42592E-03-3.39086E-04
 -1      1400-3.05904E-05-4.44210E-03-3.32192E-04
 -1      1401-3.24630E-05-4.82992E-03-3.39046E-04
 -1      1402-3.65710E-05-4.64799E-03-3.47025E-04
 -1      1403-3.51705E-05-4.33645E-03-3.39652E-04
 -1      1404-3.71707E-05-4.20234E-03-3.36199E-04
 -1      1405-4.50715E-05-7.62105E-03-3.45877E-04
 -1      1406-4.67875E-05-7.99497E-03-3.41983E-04
 -1      1407-4.85247E-05-7.95655E-03-3.66111E-04
 -1      1408-4.43670E-05-7.25724E-03-3.59068E-04
 -1      1409-4.25320E-05-7.29399E-03-3.35493E-04
 -1      1410-4.97745E-05-7.82884E-03-3.84287E-04
 -1      1411-5.13865E-05-8.20505E-03-3.83283E-04
 -1      1412-4.77640E-05-7.48727E-03-3.79743E-04
 -1      1413-4.53086E-05-7.16300E-03-3.71409E-04
 -1      1414-5.05765E-05-7.73143E-03-3.91822E-04
 -1      1415-4.45558E-05-8.03266E-03-3.01727E-04
 -1      1416-3.91255E-05-6.97038E-03-3.14033E-04
 -1      1417-4.00626E-05-7.32913E-03-2.96113E-04
 -1      1418-3.85171E-05-7.42611E-03-2.52227E-04
 -1      1419-4.16466E-05-7.75800E-03-2.76861E-04
 -1      1420-4.30475E-05-8.13401E-03-2.56912E-04
 -1      1421-5.43440E-05-8.43870E-03-3.98652E-04
 -1      1422-1.30276E-05-2.76194E-03-2.53954E-04
 -1      1423-3.65940E-05-6.25057E-03-3.30269E-04
 -1      1424-3.81970E-05-6.60768E-03-3.27875E-04
 -1      1425-4.02972E-05-6.57270E-03-3.50850E-04
 -1      1426-3.61594E-05-5.90531E-03-3.41315E-04
 -1      1427-3.39438E-05-5.93820E-03-3.19131E-04
 -1      1428-4.20030E-05-6.45164E-03-3.67701E-04
 -1      1429-4.34525E-05-6.81210E-03-3.68215E-04
 -1      1430-4.00083E-05-6.12543E-03-3.61958E-04
 -1      1431-3.74070E-05-5.81672E-03-3.52641E-04
 -1      1432-4.31427E-05-6.35888E-03-3.74502E-04
 -1      1433-3.56289E-05-6.64002E-03-2.89466E-04
 -1      1434-3.11341E-05-5.96757E-03-2.81889E-04
 -1      1435-2.94181E-05-6.05436E-03-2.40477E-04
 -1      1436-3.26162E-05-6.37427E-03-2.64926E-04
 -1      1437-3.39681E-05-6.73220E-03-2.46842E-04
 -1      1438-4.68299E-05-7.03738E-03-3.83836E-04
 -1      1439-3.53849E-06-2.57096E-03-1.74908E-04
 -1      1440-7.16892E-06-2.90554E-03-2.00886E-04
 -1      1441-5.98599E-06-2.59308E-03-2.07590E-04
 -1      1442-9.72165E-07-2.30186E-03-1.58251E-04
 -1      1443-9.00215E-06-2.56077E-03-2.32194E-04
 -1      1444-4.58955E-06-2.25074E-03-2.07171E-04
 -1      1445 1.41704E-06-1.97756E-03-1.53319E-04
 -1      1446-4.31471E-06-1.98992E-03-2.08555E-04
 -1      1447-1.32939E-06-2.01444E-03-1.86203E-04
 -1      1448 2.59772E-06-1.73361E-03-1.58219E-04
 -1      1449-7.91050E-06-3.14259E-03-1.87870E-04
 -1      1450-1.22542E-05-2.40890E-03-2.49319E-04
 -1      1451-3.41740E-05-5.16305E-03-3.44662E-04
 -1      1452-3.56474E-05-5.50459E-03-3.47696E-04
 -1      1453-3.61592E-05-5.07048E-03-3.52333E-04
 -1      1454-3.94752E-05-5.71886E-03-3.63739E-04
 -1      1455-1.64249E-05-2.34310E-03-2.61714E-04
 -1      1456-1.18845E-05-2.16070E-03-2.44014E-04
 -1      1457-2.04097E-05-2.27023E-03-2.66887E-04
 -1      1458-9.06664E-05-1.56586E-02-4.09096E-04
 -1      1459-8.85586E-05-1.52472E-02-4.04151E-04
 -1      1460-8.73275E-05-1.49456E-02-4.08945E-04
 -1      1461-9.15445E-05-1.57295E-02-4.24090E-04
 -1      1462-3.74401E-06-1.73582E-03-2.04152E-04
 -1      1463-7.57170E-06-1.95244E-03-2.23906E-04
 -1      1464-4.32109E-06-1.47230E-03-2.00411E-04
 -1      1465-9.25359E-07-1.50364E-03-1.87192E-04
 -1      1466-1.17063E-05-1.89532E-03-2.36490E-04
 -1      1467-8.50342E-06-1.49535E-03-2.13331E-04
 -1      1468-5.50983E-06-1.28205E-03-1.96419E-04
 -1      1469-1.17662E-05-1.64906E-03-2.27370E-04
 -1      1470-1.63934E-05-1.83781E-03-2.43506E-04
 -1      1471-1.32759E-05-1.44430E-03-2.19773E-04
 -1      1472 2.07252E-06-1.54357E-03-1.69358E-04
 -1      1473-2.34885E-05-5.37653E-03-1.97018E-04
 -1      1474-2.62327E-05-5.69906E-03-2.17358E-04
 -1      1475-8.05700E-06-1.10503E-03-1.91775E-04
 -1      1476-7.77172E-06-7.26005E-04-1.62032E-04
 -1      1477-1.22531E-05-8.92108E-04-1.80304E-04
 -1      1478-1.38773E-05-6.93402E-04-1.61625E-04
 -1      1479-4.64162E-06-5.67426E-04-1.42883E-04
 -1      1480-1.16330E-05-1.04874E-03-1.92448E-04
 -1      1481-1.78460E-05-1.00869E-03-1.91620E-04
 -1      1482-1.35991E-05-1.23979E-03-2.07540E-04
 -1      1483-3.80236E-05-4.98124E-03-3.54274E-04
 -1      1484-3.98958E-05-4.88665E-03-3.52728E-04
 -1      1485-3.95927E-05-5.31773E-03-3.60987E-04
 -1      1486-4.12927E-05-4.72923E-03-3.45432E-04
 -1      1487-4.02244E-05-4.42717E-03-3.37751E-04
 -1      1488-4.26297E-05-5.06534E-03-3.53305E-04
 -1      1489-3.89797E-05-4.07689E-03-3.27850E-04
 -1      1490-3.59129E-05-7.13564E-03-2.31535E-04
 -1      1491-4.49704E-05-8.55529E-03-2.39958E-04
 -1      1492-2.82933E-05-1.41792E-03-2.17938E-04
 -1      1493-2.63193E-05-1.26089E-03-2.09277E-04
 -1      1494-2.85956E-05-1.60542E-03-2.30834E-04
 -1      1495-2.12152E-05-1.31656E-03-2.15484E-04
 -1      1496-2.25894E-05-1.12640E-03-2.01216E-04
 -1      1497-2.48487E-05-1.67105E-03-2.38182E-04
 -1      1498-2.84361E-05-1.82367E-03-2.45074E-04
 -1      1499-2.06932E-05-1.73977E-03-2.41693E-04
 -1      1500-2.08663E-05-1.52972E-03-2.29448E-04
 -1      1501-1.69143E-05-1.37802E-03-2.18515E-04
 -1      1502-2.32183E-05-9.59038E-04-1.86745E-04
 -1      1503-2.66338E-05-8.97799E-04-1.76272E-04
 -1      1504-2.24619E-05-7.97199E-04-1.71640E-04
 -1      1505-7.11916E-05-1.15411E-02-4.21636E-04
 -1      1506-6.92845E-05-1.11651E-02-4.20216E-04
 -1      1507-7.33449E-05-1.19682E-02-4.23240E-04
 -1      1508-7.28369E-05-1.17919E-02-4.22840E-04
 -1      1509-7.54250E-05-1.24067E-02-4.24034E-04
 -1      1510-6.92003E-05-1.10360E-02-4.20263E-04
 -1      1511-7.28728E-05-1.17558E-02-4.19095E-04
 -1      1512-7.08556E-05-1.13295E-02-4.18748E-04
 -1      1513-6.93342E-05-1.10001E-02-4.16941E-04
 -1      1514-5.38479E-05-1.00168E-02-2.45795E-04
 -1      1515-6.35082E-05-1.17234E-02-2.44166E-04
 -1      1516-2.77067E-05-2.10768E-03-2.61423E-04
 -1      1517-3.11506E-05-2.03675E-03-2.52768E-04
 -1      1518-3.27582E-05-2.24764E-03-2.59761E-04
 -1      1519-6.60395E-05-1.20942E-02-2.57203E-04
 -1      1520-6.92572E-05-1.26224E-02-2.66269E-04
 -1      1521-7.14610E-05-1.31137E-02-2.53556E-04
 -1      1522-7.66509E-05-1.42447E-02-2.31934E-04
 -1      1523-7.41755E-05-1.37303E-02-2.38285E-04
 -1      1524-7.45647E-05-1.34528E-02-2.88565E-04
 -1      1525-6.58326E-05-1.02357E-02-4.12174E-04
 -1      1526-6.42198E-05-9.87981E-03-4.09985E-04
 -1      1527-6.74430E-05-1.05801E-02-4.13590E-04
 -1      1528-6.26826E-05-9.54944E-03-4.08275E-04
 -1      1529-9.16846E-06-1.96394E-04-8.84097E-05
 -1      1530-4.59057E-06-1.92127E-04-8.73997E-05
 -1      1531-7.72671E-06-2.90646E-04-1.07100E-04
 -1      1532-1.41687E-05-2.16535E-04-9.19998E-05
 -1      1533-1.01090E-05-1.35098E-04-7.28226E-05
 -1      1534-6.03348E-06-4.04939E-04-1.24548E-04
 -1      1535-1.11615E-05-4.13600E-04-1.26836E-04
 -1      1536-1.43167E-05-5.51140E-04-1.45543E-04
 -1      1537-1.61014E-05-4.11499E-04-1.26520E-04
 -1      1538-1.80072E-05-3.07150E-04-1.08689E-04
 -1      1539-2.13239E-05-4.26562E-04-1.26284E-04
 -1      1540-1.90647E-05-2.23362E-04-9.05525E-05
 -1      1541-1.02486E-06-1.74270E-04-8.15919E-05
 -1      1542-2.31953E-06-1.06256E-04-6.50854E-05
 -1      1543-4.77390E-06-6.54855E-05-5.03046E-05
 -1      1544-8.21145E-06-8.49729E-05-5.71346E-05
 -1      1545-3.25572E-06-7.04171E-05-5.25718E-05
 -1      1546-1.70698E-06-4.18827E-04-1.22019E-04
 -1      1547 1.45244E-07-2.64281E-04-9.68863E-05
 -1      1548 1.65858E-06-3.95654E-04-1.12816E-04
 -1      1549 1.56686E-06-1.59364E-04-7.47304E-05
 -1      1550-5.69043E-05-8.70167E-03-4.05530E-04
 -1      1551-5.51079E-05-8.33576E-03-4.02455E-04
 -1      1552-5.92971E-05-8.97674E-03-4.08452E-04
 -1      1553-5.58706E-05-8.26071E-03-4.02388E-04
 -1      1554-5.34458E-05-8.00157E-03-3.99291E-04
 -1      1555-5.92293E-05-8.79387E-03-4.03064E-04
 -1      1556-5.77082E-05-8.44939E-03-4.00020E-04
 -1      1557-6.09908E-05-9.17524E-03-4.05942E-04
 -1      1558-5.61653E-05-8.11395E-03-3.96942E-04
 -1      1559-5.15759E-05-7.65864E-03-3.95553E-04
 -1      1560-3.38123E-05-2.76076E-03-2.85131E-04
 -1      1561-3.07881E-05-2.58213E-03-2.82344E-04
 -1      1562-3.35200E-05-2.50505E-03-2.72078E-04
 -1      1563-2.75838E-05-2.39231E-03-2.75274E-04
 -1      1564-3.80674E-05-3.81697E-03-3.19843E-04
 -1      1565-1.89556E-05-6.92935E-04-1.61682E-04
 -1      1566-2.28341E-05-6.40536E-04-1.54025E-04
 -1      1567-4.97304E-05-7.29085E-03-3.91369E-04
 -1      1568-4.80106E-05-6.93837E-03-3.87073E-04
 -1      1569-5.24963E-05-7.55635E-03-3.95168E-04
 -1      1570-4.91871E-05-6.86576E-03-3.86763E-04
 -1      1571-4.64008E-05-6.61747E-03-3.82744E-04
 -1      1572-5.28454E-05-7.37873E-03-3.89367E-04
 -1      1573-5.13897E-05-7.04639E-03-3.85219E-04
 -1      1574-5.45454E-05-7.74782E-03-3.93445E-04
 -1      1575-4.99305E-05-6.72386E-03-3.81030E-04
 -1      1576-4.45530E-05-6.28937E-03-3.77757E-04
 -1      1577-4.27866E-05-5.93886E-03-3.72184E-04
 -1      1578-4.11627E-05-5.62495E-03-3.66731E-04
 -1      1579-4.59504E-05-6.19121E-03-3.76953E-04
 -1      1580-4.27837E-05-5.53127E-03-3.65756E-04
 -1      1581-4.67805E-05-6.02081E-03-3.70720E-04
 -1      1582-4.54504E-05-5.70453E-03-3.65261E-04
 -1      1583-4.83804E-05-6.37304E-03-3.76156E-04
 -1      1584-4.40447E-05-5.39548E-03-3.59695E-04
 -1      1585 5.13135E-06-3.35140E-04-9.54019E-05
 -1      1586 6.86517E-06-2.94661E-04-8.12258E-05
 -1      1587 8.42943E-06-2.26139E-04-6.14175E-05
 -1      1588 4.70544E-06-2.12455E-04-7.55868E-05
 -1      1589 5.07454E-06-9.32032E-05-4.00235E-05
 -1      1590 4.37600E-06-1.06099E-04-5.16570E-05
 -1      1591 3.07441E-06-1.30415E-04-6.26545E-05
 -1      1592-2.44938E-05-2.16214E-03-2.64266E-04
 -1      1593-2.05028E-05-1.99528E-03-2.54962E-04
 -1      1594-7.99881E-05-1.33887E-02-4.23246E-04
 -1      1595-8.21920E-05-1.37925E-02-4.26269E-04
 -1      1596-7.78256E-05-1.29213E-02-4.24405E-04
 -1      1597-9.14180E-05-1.56794E-02-4.28377E-04
 -1      1598-8.95355E-05-1.52839E-02-4.28119E-04
 -1      1599-2.35660E-05-5.51029E-04-1.41540E-04
 -1      1600-8.37894E-05-1.41029E-02-4.27256E-04
 -1      1601-8.12683E-05-1.35590E-02-4.26821E-04
 -1      1602-8.13258E-05-1.35815E-02-4.19526E-04
 -1      1603-7.99432E-05-1.32717E-02-4.22973E-04
 -1      1604-7.72959E-05-1.27338E-02-4.25431E-04
 -1      1605-7.86953E-05-1.30048E-02-4.24606E-04
 -1      1606-7.62792E-05-1.24899E-02-4.21719E-04
 -1      1607-7.85021E-05-1.30271E-02-4.09443E-04
 -1      1608-8.54974E-05-1.44556E-02-4.27626E-04
 -1      1609-8.44629E-05-1.42217E-02-4.26512E-04
 -1      1610-8.76982E-05-1.49042E-02-4.28099E-04
 -1      1611-8.46217E-05-1.42785E-02-4.21288E-04
 -1      1612-8.29787E-05-1.39258E-02-4.21726E-04
 -1      1613-8.78768E-05-1.49542E-02-4.24206E-04
 -1      1614-8.58266E-05-1.45661E-02-4.17042E-04
 -1      1615-6.87380E-05-1.08718E-02-4.03555E-04
 -1      1616-7.47590E-05-1.21671E-02-4.17005E-04
 -1      1617-7.57754E-05-1.24371E-02-4.06855E-04
 -1      1618-7.66276E-05-1.26943E-02-3.96982E-04
 -1      1619 0.00000E+00 0.00000E+00 0.00000E+00
 -1      1620 0.00000E+00 0.00000E+00 0.00000E+00
 -1      1621 0.00000E+00 0.00000E+00 0.00000E+00
 -1      1622 0.00000E+00 0.00000E+00 0.00000E+00
 -1      1623 0.00000E+00 0.00000E+00 0.00000E+00
 -1      1624 0.00000E+00 0.00000E+00 0.00000E+00
 -1      1625 0.00000E+00 0.00000E+00 0.00000E+00
 -1      1626 0.00000E+00 0.00000E+00 0.00000E+00
 -1      1627 0.00000E+00 0.00000E+00 0.00000E+00
 -1      1628 0.00000E+00 0.00000E+00 0.00000E+00
 -1      1629 0.00000E+00 0.00000E+00 0.00000E+00
 -1      1630 0.00000E+00 0.00000E+00 0.00000E+00
 -1      1631 0.00000E+00 0.00000E+00 0.00000E+00
 -1      1632 0.00000E+00 0.00000E+00 0.00000E+00
 -1      1633 0.00000E+00 0.00000E+00 0.00000E+00
 -1      1634 0.00000E+00 0.00000E+00 0.00000E+00
 -1      1635 0.00000E+00 0.00000E+00 0.00000E+00
 -1      1636 0.00000E+00 0.00000E+00 0.00000E+00
 -1      1637 0.00000E+00 0.00000E+00 0.00000E+00
 -1      1638 0.00000E+00 0.00000E+00 0.00000E+00
 -1      1639 0.00000E+00 0.00000E+00 0.00000E+00
 -1      1640 0.00000E+00 0.00000E+00 0.00000E+00
 -1      1641-8.14169E-05-1.69561E-02-1.30327E-06
 -1      1642-8.05868E-05-1.69010E-02 1.01774E-05
 -1      1643-8.06400E-05-1.68551E-02 1.35233E-06
 -1      1644-8.28071E-05-1.68345E-02-5.83336E-05
 -1      1645-8.81936E-05-1.70702E-02-1.58653E-04
 -1      1646-8.31469E-05-1.70415E-02-3.20984E-05
 -1      1647-7.53636E-05-1.68441E-02 1.38289E-04
 -1      1648-7.20704E-05-1.68637E-02 2.27792E-04
 -1      1649-8.80761E-05-1.68455E-02-1.95195E-04
 -1      1650-7.20584E-05-1.68867E-02 2.32210E-04
 -1      1651-7.20620E-05-1.69138E-02 2.37034E-04
 -1      1652-8.03061E-05-1.68738E-02 1.29468E-05
 -1      1653-8.88310E-05-1.68881E-02-2.09089E-04
 -1      1654-8.88702E-05-1.68652E-02-2.13418E-04
 -1      1655-7.24869E-05-1.69413E-02 2.31375E-04
 -1      1656-7.48213E-05-1.69700E-02 1.74997E-04
 -1      1657-8.00963E-05-1.69276E-02 2.79391E-05
 -1      1658-8.90237E-05-1.69423E-02-2.04676E-04
 -1      1659-8.86128E-05-1.69148E-02-1.98926E-04
 -1      1660-8.11746E-05-1.69844E-02 1.03314E-05
 -1      1661-8.49512E-05-1.70131E-02-8.37245E-05
 -1      1662-8.77683E-05-1.69705E-02-1.65909E-04
 -1      1663-1.60437E-05-4.33059E-03-1.10870E-04
 -1      1664-1.95363E-05-4.19491E-03-1.55137E-05
 -1      1665-2.27317E-05-4.81732E-03-1.63305E-05
 -1      1666-2.02887E-05-4.96448E-03-1.15465E-04
 -1      1667-2.53829E-05-5.36019E-03-2.18468E-05
 -1      1668-2.87680E-05-6.02292E-03-2.26715E-05
 -1      1669-2.36838E-05-5.51595E-03-1.23673E-04
 -1      1670-7.32576E-05-1.42419E-02-1.38449E-04
 -1      1671-7.30555E-05-1.46717E-02-7.19580E-05
 -1      1672-6.93421E-05-1.43899E-02-6.39546E-06
 -1      1673-8.06948E-06-1.98717E-03-1.51487E-05
 -1      1674-1.05967E-05-2.48365E-03-1.81538E-05
 -1      1675-2.03617E-07-2.07325E-03-9.12376E-05
 -1      1676-3.25872E-05-6.78437E-03-2.55047E-05
 -1      1677-3.26786E-05-6.95895E-03-1.33228E-04
 -1      1678-3.61300E-05-7.48338E-03-2.61704E-05
 -1      1679-3.96820E-05-8.19622E-03-2.67085E-05
 -1      1680-4.12680E-05-8.38492E-03-1.38381E-04
 -1      1681-4.33213E-05-8.91990E-03-2.72032E-05
 -1      1682-7.07474E-05-1.44934E-02-3.23852E-05
 -1      1683-7.44414E-05-1.52525E-02-3.25201E-05
 -1      1684-4.55546E-05-9.11454E-03-1.40448E-04
 -1      1685-8.63476E-05-1.64533E-02-1.95994E-04
 -1      1686-2.79131E-05-6.18816E-03-1.27546E-04
 -1      1687 6.84257E-07-1.27990E-05-9.27843E-06
 -1      1688-1.38144E-05-2.98614E-03 7.76512E-06
 -1      1689-1.45759E-05-3.14511E-03 6.75202E-06
 -1      1690-1.33756E-05-2.90622E-03 6.90453E-06
 -1      1691-3.86825E-06-2.57994E-03-9.89525E-05
 -1      1692-3.70174E-05-7.66566E-03-1.36119E-04
 -1      1693-2.07504E-05-4.48007E-03 1.48831E-05
 -1      1694-2.02736E-05-4.38808E-03 1.33189E-05
 -1      1695-1.92940E-05-4.17219E-03 1.40340E-05
 -1      1696-7.02150E-07-7.89740E-06-7.87655E-06
 -1      1697-4.28795E-07-8.39510E-06-8.45735E-06
 -1      1698 1.57516E-06-1.78415E-05 1.34676E-05
 -1      1699 2.98937E-07-4.54145E-05 1.11667E-06
 -1      1700 4.25194E-07-4.13785E-05 1.26242E-06
 -1      1701-7.57081E-05-1.59214E-02 1.55380E-05
 -1      1702-7.61482E-05-1.60171E-02 1.63448E-05
 -1      1703-6.92672E-05-1.63094E-02 2.33955E-04
 -1      1704-8.74670E-05-1.66087E-02-2.07450E-04
 -1      1705-8.70294E-05-1.65130E-02-2.08257E-04
 -1      1706-1.32445E-05-2.67011E-03-8.19485E-06
 -1      1707-1.73266E-05-2.93379E-03-4.69153E-05
 -1      1708-1.19732E-05-2.59171E-03 4.16587E-06
 -1      1709-1.63623E-05-2.85143E-03-3.41336E-05
 -1      1710-4.64169E-05-9.82192E-03 1.61434E-05
 -1      1711-4.70133E-05-9.95245E-03 1.79865E-05
 -1      1712-4.53876E-05-9.62408E-03 1.94791E-05
 -1      1713-4.80116E-05-1.02186E-02 2.50935E-05
 -1      1714-4.86199E-05-1.03493E-02 2.69395E-05
 -1      1715-5.24860E-05-1.12496E-02 4.10027E-05
 -1      1716-5.22731E-05-1.11146E-02 2.76633E-05
 -1      1717-5.40905E-05-1.14905E-02 2.72660E-05
 -1      1718-2.10363E-05-4.54685E-03 2.02272E-05
 -1      1719-1.95653E-05-4.23789E-03 1.91990E-05
 -1      1720-5.81913E-05-1.13482E-02-1.44362E-04
 -1      1721-5.77541E-05-1.17981E-02-3.63523E-05
 -1      1722-5.45173E-05-1.13053E-02-6.80410E-06
 -1      1723-1.09788E-06-1.14945E-05 8.97581E-06
 -1      1724-3.27997E-05-6.99032E-03 1.51060E-05
 -1      1725-3.30201E-05-7.06704E-03 2.10760E-05
 -1      1726-3.18398E-05-6.81526E-03 2.30761E-05
 -1      1727-3.15874E-05-6.74084E-03 1.71047E-05
 -1      1728-5.30954E-05-1.11528E-02 9.42962E-06
 -1      1729-5.32828E-05-1.13151E-02 2.55000E-05
 -1      1730-5.16968E-05-1.09859E-02 2.54845E-05
 -1      1731-5.15039E-05-1.08240E-02 9.46001E-06
 -1      1732-8.79608E-06-2.00310E-03 1.04227E-05
 -1      1733-9.39206E-06-2.11054E-03 1.39524E-05
 -1      1734-8.61813E-06-1.94495E-03 1.81183E-05
 -1      1735-7.94289E-06-1.84450E-03 1.45281E-05
 -1      1736 8.46827E-07-1.65614E-05 1.34478E-05
 -1      1737-5.49417E-05-1.16785E-02 3.14137E-05
 -1      1738-5.65351E-05-1.19206E-02 1.76368E-05
 -1      1739-5.69284E-05-1.20843E-02 2.96616E-05
 -1      1740-2.21943E-05-4.81993E-03 2.10860E-05
 -1      1741-2.16688E-05-4.72695E-03 1.94675E-05
 -1      1742-2.59670E-07-1.47183E-04 3.28935E-06
 -1      1743-8.82516E-07-2.27285E-04 5.20068E-06
 -1      1744-5.87980E-07-2.26851E-04 5.78354E-06
 -1      1745 6.35415E-08-1.44805E-04 3.86377E-06
 -1      1746-1.40900E-05-3.11686E-03 1.92595E-05
 -1      1747-1.47556E-05-3.28036E-03 1.84999E-05
 -1      1748-3.42673E-05-7.14971E-03-1.34811E-06
 -1      1749-3.15921E-05-6.84791E-03 2.51796E-05
 -1      1750-3.54229E-05-7.29433E-03-1.16132E-05
 -1      1751-2.39216E-07-2.31940E-04 5.22905E-06
 -1      1752-1.01150E-06-2.87407E-04 5.49630E-07
 -1      1753-9.49562E-07-2.00275E-04-2.62376E-06
 -1      1754-8.09290E-05-1.66356E-02-3.35018E-05
 -1      1755-2.48160E-05-5.27653E-03 8.04277E-06
 -1      1756-2.51010E-05-5.44689E-03 1.78022E-05
 -1      1757-2.35010E-05-5.11564E-03 1.70997E-05
 -1      1758-9.84933E-06-2.15977E-03 1.62351E-05
 -1      1759-2.89961E-05-5.48454E-03-4.82688E-05
 -1      1760-2.74339E-05-5.15221E-03-4.80373E-05
 -1      1761-3.43918E-05-7.37289E-03 2.17959E-05
 -1      1762-4.18477E-05-8.21302E-03-5.33724E-05
 -1      1763-3.82493E-05-8.16768E-03 1.95180E-05
 -1      1764-3.64844E-05-7.80093E-03 1.89028E-05
 -1      1765-4.01184E-05-7.84554E-03-5.34940E-05
 -1      1766-1.46994E-05-3.25764E-03 3.01881E-05
 -1      1767-1.53774E-05-3.39070E-03 2.01999E-05
 -1      1768-2.31198E-05-4.37065E-03-3.98590E-05
 -1      1769-2.15350E-05-4.02183E-03-3.85994E-05
 -1      1770-1.85562E-05-4.03971E-03 1.31569E-05
 -1      1771-1.79901E-05-3.10439E-03-4.15886E-05
 -1      1772-1.37526E-05-3.07836E-03 1.32804E-05
 -1      1773-2.21578E-05-4.24128E-03-2.86279E-05
 -1      1774-7.15072E-05-1.63923E-02 1.89248E-04
 -1      1775-1.02067E-05-2.28139E-03 1.11587E-05
 -1      1776 1.56265E-07-4.43268E-05 2.19725E-06
 -1      1777-4.72149E-05-1.00328E-02 2.44923E-05
 -1      1778-4.56055E-05-9.70381E-03 2.59114E-05
 -1      1779-5.38996E-05-1.08047E-02-5.22778E-05
 -1      1780-5.04587E-05-1.06964E-02 1.98173E-05
 -1      1781-5.29315E-05-1.06764E-02-4.19417E-05
 -1      1782-7.01130E-05-1.47257E-02 1.27222E-05
 -1      1783-7.00176E-05-1.48147E-02 2.66124E-05
 -1      1784-6.94297E-05-1.46957E-02 2.75108E-05
 -1      1785-6.95198E-05-1.46067E-02 1.36224E-05
 -1      1786-6.78598E-05-1.43429E-02 2.39197E-05
 -1      1787-6.72793E-05-1.42240E-02 2.47323E-05
 -1      1788-1.78032E-05-3.69750E-03-3.14006E-06
 -1      1789-1.64947E-05-3.42784E-03-3.52358E-06
 -1      1790-1.60580E-05-3.55429E-03 1.90072E-05
 -1      1791-1.72954E-05-3.82785E-03 1.99404E-05
 -1      1792-3.34912E-05-7.16627E-03 2.39836E-05
 -1      1793-2.31408E-05-4.82964E-03-1.45697E-06
 -1      1794-3.59077E-05-7.48344E-03-1.84964E-06
 -1      1795-3.44772E-05-6.82986E-03-3.52271E-05
 -1      1796-5.79334E-05-1.19949E-02-1.05205E-05
 -1      1797-5.59079E-05-1.15890E-02-8.63540E-06
 -1      1798-2.55324E-05-5.52610E-03 2.44096E-05
 -1      1799-2.49460E-05-5.31242E-03 1.55595E-05
 -1      1800-2.63887E-05-5.62150E-03 1.61030E-05
 -1      1801-2.70196E-05-5.83849E-03 2.50015E-05
 -1      1802-2.27531E-05-4.65497E-03-1.01658E-05
 -1      1803-4.96632E-05-1.05627E-02 2.52168E-05
 -1      1804-5.02490E-05-1.06910E-02 2.73682E-05
 -1      1805-3.58808E-07-1.20938E-04-2.15969E-06
 -1      1806-3.78327E-05-7.98066E-03 8.90947E-06
 -1      1807-1.05815E-05-2.33580E-03 1.33776E-05
 -1      1808-2.43401E-05-4.98932E-03-1.04533E-05
 -1      1809-2.62958E-05-5.58349E-03 8.18578E-06
 -1      1810 2.20616E-07-8.63649E-05 3.15499E-06
 -1      1811-4.91151E-05-1.01461E-02-1.23359E-05
 -1      1812-4.79935E-05-1.00058E-02-1.34620E-06
 -1      1813-4.52744E-05-9.68260E-03 2.70538E-05
 -1      1814-4.80847E-06-4.57680E-04-1.82505E-05
 -1      1815-3.78155E-06-3.42154E-04-1.15182E-05
 -1      1816-3.73419E-06-3.33034E-04-1.61897E-05
 -1      1817-3.39988E-05-6.65240E-03-4.51334E-05
 -1      1818-3.12462E-05-6.66863E-03 1.49215E-05
 -1      1819-3.01775E-05-6.27256E-03-4.18033E-06
 -1      1820-1.09990E-05-2.09072E-03-1.04848E-05
 -1      1821-1.53229E-05-2.32330E-03-4.38181E-05
 -1      1822-1.63127E-05-2.16129E-03-5.75446E-05
 -1      1823-7.85069E-05-1.64987E-02 1.37766E-05
 -1      1824 9.55411E-08-2.11255E-05 1.40852E-06
 -1      1825-5.50019E-07-8.58935E-05 2.49315E-06
 -1      1826 4.54444E-07-2.35040E-05-1.48958E-05
 -1      1827-9.50579E-07-2.26178E-05 1.50870E-05
 -1      1828-4.74465E-05-9.47610E-03-4.84205E-05
 -1      1829-4.48321E-05-9.49189E-03 1.60453E-05
 -1      1830-4.36107E-05-9.06613E-03-4.54166E-06
 -1      1831-5.07638E-05-1.04901E-02-1.22931E-05
 -1      1832-4.97473E-05-1.03624E-02-2.05060E-06
 -1      1833-5.68389E-05-1.19082E-02 1.02331E-05
 -1      1834-1.54561E-06-4.04650E-04 1.28749E-06
 -1      1835-1.68051E-05-3.69431E-03-2.21711E-05
 -1      1836-1.25967E-05-3.82057E-03-1.14059E-04
 -1      1837-8.42830E-06-3.23766E-03-1.07846E-04
 -1      1838-3.28127E-05-6.47730E-03-3.54035E-05
 -1      1839-2.88949E-05-6.10062E-03 5.27944E-06
 -1      1840-5.74014E-05-1.21779E-02 2.59276E-05
 -1      1841-5.70412E-05-1.19438E-02 5.67738E-06
 -1      1842-5.49893E-05-1.15167E-02 5.48130E-06
 -1      1843-5.53662E-05-1.17503E-02 2.55923E-05
 -1      1844-3.33530E-07-2.09848E-04 2.30739E-06
 -1      1845-1.04686E-07-2.99718E-04 5.72295E-06
 -1      1846-3.49753E-06-2.47906E-04-1.10748E-05
 -1      1847-3.09564E-06-1.67053E-04-1.18748E-05
 -1      1848-4.61839E-05-9.29078E-03-3.81272E-05
 -1      1849-4.22994E-05-8.88244E-03 5.61913E-06
 -1      1850-4.79482E-05-9.66592E-03-3.75876E-05
 -1      1851-2.04845E-06-5.31383E-04 2.53157E-06
 -1      1852-5.61749E-05-1.19263E-02 2.74358E-05
 -1      1853-5.42594E-06-1.30988E-03 9.00705E-06
 -1      1854-4.90457E-06-1.17041E-03 7.94954E-06
 -1      1855-6.09341E-06-1.38473E-03 5.84272E-06
 -1      1856-6.68537E-06-1.53427E-03 6.65990E-06
 -1      1857-1.67086E-05-3.66755E-03 2.07660E-05
 -1      1858-3.48657E-05-7.47424E-03 2.47441E-05
 -1      1859-7.15118E-06-1.60210E-03 6.80902E-06
 -1      1860-2.15332E-05-4.52502E-03 1.02017E-06
 -1      1861-1.21345E-05-2.75229E-03 1.71309E-05
 -1      1862-1.26960E-05-2.82852E-03 1.80716E-05
 -1      1863-4.17809E-05-8.68558E-03-4.51031E-06
 -1      1864-3.94430E-05-8.31487E-03 8.99592E-06
 -1      1865-4.06045E-05-8.53708E-03 6.06366E-06
 -1      1866-1.64084E-05-2.41410E-03-5.78798E-05
 -1      1867-1.67621E-05-2.58537E-03-4.81773E-05
 -1      1868 4.18438E-07-5.07164E-06-6.96091E-08
 -1      1869-5.66937E-05-1.12817E-02-6.22371E-05
 -1      1870-5.82414E-05-1.14090E-02-8.61225E-05
 -1      1871 2.10875E-07-8.62115E-05 1.84569E-06
 -1      1872-1.30078E-08-6.61666E-05-1.45854E-06
 -1      1873-2.84897E-05-5.92188E-03-4.12698E-06
 -1      1874-2.73186E-05-5.78290E-03 5.72663E-06
 -1      1875-7.63978E-05-1.61346E-02 2.51610E-05
 -1      1876-6.95319E-05-1.64269E-02 2.42718E-04
 -1      1877-6.28712E-07-1.30922E-04 4.79384E-06
 -1      1878-5.50849E-05-1.10971E-02-4.61688E-05
 -1      1879-5.26536E-05-1.11169E-02 1.58646E-05
 -1      1880-1.80586E-05-3.95632E-03 2.08480E-05
 -1      1881-5.92820E-06-1.37332E-03 9.19145E-06
 -1      1882-6.61742E-05-1.39902E-02 2.35746E-05
 -1      1883-6.47199E-05-1.36800E-02 2.31218E-05
 -1      1884-6.93446E-05-1.43164E-02-1.85608E-05
 -1      1885-7.27457E-05-1.46077E-02-7.07814E-05
 -1      1886-1.38948E-05-2.95965E-03 7.34815E-06
 -1      1887-1.45298E-05-3.09363E-03 1.79555E-05
 -1      1888-6.07580E-06-1.36211E-03 1.48805E-05
 -1      1889-7.15528E-06-1.56140E-03 2.30433E-05
 -1      1890-7.45834E-06-1.55230E-03 2.65280E-06
 -1      1891-6.45630E-06-1.35727E-03-4.42155E-06
 -1      1892-1.19966E-05-2.41859E-03-6.85047E-06
 -1      1893-1.05417E-05-2.33054E-03 6.80861E-06
 -1      1894-1.45270E-06-3.96441E-04 1.75694E-06
 -1      1895-2.17553E-06-5.33867E-04 2.05006E-06
 -1      1896-1.38139E-05-3.12452E-03-2.07282E-05
 -1      1897-3.77384E-05-7.99255E-03 1.70217E-05
 -1      1898-3.84442E-05-8.22760E-03 2.65628E-05
 -1      1899-4.01746E-05-8.59254E-03 2.74555E-05
 -1      1900-3.94418E-05-8.35560E-03 1.78562E-05
 -1      1901-4.32431E-05-9.22482E-03 2.48073E-05
 -1      1902-4.38084E-05-9.35575E-03 2.83097E-05
 -1      1903-3.95142E-06-4.56318E-04-9.78698E-06
 -1      1904-5.20617E-06-5.73222E-04-1.42781E-05
 -1      1905-5.86189E-06-5.73984E-04-2.29255E-05
 -1      1906-6.53333E-06-6.67559E-04-2.13656E-05
 -1      1907-3.14754E-06-6.82150E-04-2.54126E-07
 -1      1908-3.21373E-06-7.85086E-04 3.38144E-06
 -1      1909-3.71782E-05-7.66250E-03-1.17256E-05
 -1      1910-8.81293E-07-6.57369E-05 5.69836E-06
 -1      1911-1.57369E-05-3.35870E-03 3.26208E-06
 -1      1912 1.85371E-07-7.90245E-06 4.33282E-07
 -1      1913-4.14082E-05-8.84329E-03 2.45994E-05
 -1      1914-6.27570E-05-1.32732E-02 2.38501E-05
 -1      1915-6.53151E-05-1.38166E-02 2.54809E-05
 -1      1916-5.92149E-05-1.21164E-02-2.81546E-05
 -1      1917-5.61939E-05-1.18912E-02 2.04231E-05
 -1      1918-6.00258E-05-1.21694E-02-4.29351E-05
 -1      1919-2.13338E-05-4.63604E-03 3.17112E-05
 -1      1920-2.33373E-05-4.97627E-03 1.45788E-05
 -1      1921-2.36144E-05-5.06699E-03 2.63588E-05
 -1      1922-2.80859E-05-6.06840E-03 2.25610E-05
 -1      1923-2.97852E-05-6.42093E-03 2.29408E-05
 -1      1924-1.57074E-05-1.95379E-03-6.20109E-05
 -1      1925-5.18837E-05-1.09304E-02 1.49730E-05
 -1      1926-5.02676E-05-1.05878E-02 1.46127E-05
 -1      1927-7.81616E-05-1.63343E-02 2.00717E-06
 -1      1928-7.41394E-06-1.69352E-03 1.46645E-05
 -1      1929-8.03905E-06-1.72315E-03 5.10394E-06
 -1      1930-9.25522E-06-1.97444E-03 8.05466E-06
 -1      1931-1.08242E-05-2.49969E-03 1.75687E-05
 -1      1932-1.35441E-07-7.43986E-05 4.23045E-06
 -1      1933-2.16775E-06-4.13681E-04 4.18624E-06
 -1      1934-1.29455E-06-2.77938E-04-1.26171E-07
 -1      1935-1.09799E-06-3.15098E-04 7.33308E-06
 -1      1936-2.00635E-06-4.61862E-04 1.31248E-05
 -1      1937-2.37807E-05-5.15323E-03 2.22134E-05
 -1      1938-5.89064E-05-1.24059E-02 1.48500E-05
 -1      1939-6.13897E-05-1.29205E-02 1.46947E-05
 -1      1940-5.96941E-05-1.25931E-02 1.82882E-05
 -1      1941-5.85785E-05-1.23591E-02 1.95840E-05
 -1      1942-6.10811E-05-1.29451E-02 2.73871E-05
 -1      1943-6.08550E-05-1.30367E-02 4.67931E-05
 -1      1944-5.83605E-05-1.24500E-02 3.89368E-05
 -1      1945-5.45688E-05-1.14807E-02 1.18563E-05
 -1      1946-4.60030E-08-8.35657E-05-1.94660E-08
 -1      1947-2.51543E-05-5.40672E-03 3.13647E-05
 -1      1948-1.67905E-05-3.65496E-03 9.36022E-06
 -1      1949-2.07381E-05-3.97728E-03-2.57732E-05
 -1      1950-4.37544E-07-1.35083E-04-8.20069E-07
 -1      1951-5.50874E-06-1.16617E-03 5.46802E-06
 -1      1952-4.73882E-06-1.10917E-03 1.48966E-05
 -1      1953-5.76000E-05-1.17054E-02-3.66124E-05
 -1      1954-6.76689E-05-1.39637E-02-1.88565E-05
 -1      1955-1.04466E-05-1.88601E-03-1.63345E-05
 -1      1956-1.17708E-06-1.53201E-04 6.34259E-06
 -1      1957-1.23640E-06-2.11765E-04 9.64120E-06
 -1      1958-1.64469E-05-3.52492E-03 2.16836E-05
 -1      1959-1.71740E-05-3.66494E-03 1.11744E-05
 -1      1960-5.38608E-05-1.10564E-02-2.38383E-05
 -1      1961-5.47714E-05-1.13738E-02-5.10590E-06
 -1      1962-7.27817E-05-1.48936E-02-3.62443E-05
 -1      1963-1.06180E-05-1.48755E-03-3.60594E-05
 -1      1964-9.79288E-06-1.43912E-03-2.65400E-05
 -1      1965-6.39256E-06-1.25741E-03-4.07501E-06
 -1      1966-7.36696E-06-1.30269E-03-1.30316E-05
 -1      1967-5.19950E-05-1.08493E-02 3.72548E-06
 -1      1968-6.66673E-06-1.50774E-03 1.26060E-05
 -1      1969-5.62831E-06-1.29860E-03 1.11179E-05
 -1      1970-6.58500E-06-1.33251E-03 7.05848E-06
 -1      1971-7.16963E-05-1.50554E-02 1.26657E-05
 -1      1972-7.16091E-05-1.51444E-02 2.65700E-05
 -1      1973-7.06747E-05-1.48885E-02 2.01311E-05
 -1      1974-6.97684E-05-1.48582E-02 3.98644E-05
 -1      1975-7.25235E-05-1.51749E-02 6.80169E-06
 -1      1976-2.32875E-05-5.06221E-03 1.97832E-05
 -1      1977-7.53856E-07-3.23186E-04 6.53255E-06
 -1      1978-7.35697E-05-1.55330E-02 2.51526E-05
 -1      1979-3.01410E-05-6.49149E-03 2.51119E-05
 -1      1980-7.93240E-05-1.59172E-02-7.66680E-05
 -1      1981-7.58364E-05-1.54748E-02-4.12466E-05
 -1      1982-7.46429E-05-1.58171E-02 3.40732E-05
 -1      1983-4.46216E-05-9.33931E-03 1.88494E-05
 -1      1984-4.69273E-05-9.65317E-03-2.75955E-05
 -1      1985-4.52095E-05-9.22131E-03-4.82810E-05
 -1      1986-3.78216E-05-7.88527E-03 1.86461E-05
 -1      1987-3.78259E-05-7.77831E-03-4.67671E-05
 -1      1988-3.06124E-05-6.38581E-03-4.46527E-05
 -1      1989-3.12828E-05-6.47896E-03 1.82623E-05
 -1      1990-4.18796E-05-8.94771E-03 2.76580E-05
 -1      1991-2.15438E-05-3.67772E-03-5.30387E-05
 -1      1992-2.85873E-05-6.16489E-03 2.53745E-05
 -1      1993-2.26727E-06-6.07158E-04 8.89353E-06
 -1      1994-1.88003E-06-6.08856E-04 9.48297E-06
 -1      1995-6.15650E-05-1.27233E-02-1.40685E-05
 -1      1996-4.74675E-05-1.01410E-02 3.38832E-05
 -1      1997-4.52738E-05-9.76849E-03 4.87317E-05
 -1      1998-6.80143E-05-1.43592E-02 2.26836E-05
 -1      1999-1.13456E-05-2.55558E-03 1.64764E-05
 -1      2000-7.20445E-05-1.48850E-02-1.78284E-05
 -1      2001-7.20079E-05-1.45990E-02-5.23837E-05
 -1      2002-1.57965E-06-4.45094E-04 7.70932E-06
 -1      2003-9.81170E-06-2.03415E-03 2.37270E-05
 -1      2004-1.03956E-05-2.22528E-03 3.25133E-05
 -1      2005-5.21159E-05-1.10647E-02 2.83039E-05
 -1      2006-1.17749E-05-2.63574E-03 2.42769E-05
 -1      2007-6.31244E-05-1.34126E-02 3.27502E-05
 -1      2008-5.59738E-06-7.25231E-04-1.27074E-05
 -1      2009-4.28961E-06-1.04953E-03 1.14148E-05
 -1      2010-6.68264E-06-1.68101E-03 1.35537E-05
 -1      2011-7.78356E-06-1.74695E-03 6.48169E-06
 -1      2012-1.11404E-05-1.95780E-03-2.39878E-05
 -1      2013-6.23004E-05-1.21022E-02-1.45139E-04
 -1      2014-7.73923E-06-8.66980E-04-2.25941E-05
 -1      2015-1.20945E-06-6.05925E-06-7.21614E-06
 -1      2016-2.50047E-06-1.27286E-05-1.03946E-05
 -1      2017-1.12525E-05-1.13714E-03-4.56281E-05
 -1      2018-9.59125E-06-1.02793E-03-3.21494E-05
 -1      2019-9.26622E-06-9.69400E-04-3.51703E-05
 -1      2020-5.77703E-06-1.14506E-03 1.60726E-05
 -1      2021-2.50537E-05-5.43409E-03 2.19076E-05
 -1      2022-2.65224E-05-5.74333E-03 2.22615E-05
 -1      2023-4.07031E-06-1.11847E-03 1.18420E-05
 -1      2024-3.97030E-05-8.48887E-03 2.44428E-05
 -1      2025-1.09064E-05-2.25488E-03 1.09087E-05
 -1      2026-6.85990E-05-1.43078E-02-1.56946E-07
 -1      2027-5.82070E-05-1.23647E-02 2.92996E-05
 -1      2028-7.79634E-05-1.63949E-02 1.98895E-05
 -1      2029-3.79093E-05-8.12134E-03 3.48463E-05
 -1      2030-9.71590E-06-2.22591E-03 1.22214E-05
 -1      2031-6.24902E-06-1.10872E-03-8.73828E-06
 -1      2032-1.29554E-05-2.75943E-03 1.40584E-05
 -1      2033-4.23474E-05-8.94555E-03 1.55696E-05
 -1      2034-2.90439E-05-6.16213E-03 1.41777E-05
 -1      2035-8.46048E-06-1.77600E-03 1.60608E-05
 -1      2036-6.83509E-05-1.45216E-02 3.50264E-05
 -1      2037-1.22923E-05-2.17750E-03-2.35901E-05
 -1      2038 2.13875E-07-3.73214E-06-7.86432E-07
 -1      2039 2.01077E-06-5.64168E-06 6.44898E-06
 -1      2040 1.65297E-07-3.51124E-05-1.23450E-06
 -1      2041-2.99078E-06-6.20460E-04 1.22421E-05
 -1      2042-7.38533E-05-1.55932E-02 2.40497E-05
 -1      2043-3.60775E-05-7.64948E-03 1.74902E-05
 -1      2044-3.62773E-05-7.74601E-03 2.83277E-05
 -1      2045-3.37149E-05-7.26180E-03 3.47819E-05
 -1      2046-4.20661E-05-9.08662E-03 5.32702E-05
 -1      2047-4.26397E-05-9.08511E-03 3.01817E-05
 -1      2048-4.39710E-05-9.41709E-03 3.88172E-05
 -1      2049-4.42992E-05-9.35366E-03 1.61881E-05
 -1      2050-6.16501E-05-1.29084E-02 8.77530E-06
 -1      2051-3.65200E-05-7.81554E-03 2.44415E-05
 -1      2052-2.04105E-05-3.38086E-03-5.78497E-05
 -1      2053-8.38096E-06-8.03943E-04-3.13995E-05
 -1      2054-7.74528E-05-1.64386E-02 3.66180E-05
 -1      2055-7.64479E-05-1.58894E-02-5.54909E-06
 -1      2056-5.04907E-05-1.06967E-02 2.40034E-05
 -1      2057-3.31032E-05-6.13302E-03-6.77673E-05
 -1      2058-4.61194E-05-8.92068E-03-7.37089E-05
 -1      2059-7.44629E-05-1.52734E-02-3.27754E-05
 -1      2060-6.76228E-05-1.40204E-02-1.05170E-05
 -1      2061-6.58307E-05-1.39546E-02 2.99898E-05
 -1      2062-2.77098E-05-5.94202E-03 3.00509E-05
 -1      2063-2.93008E-05-6.25303E-03 2.46205E-05
 -1      2064-3.81029E-05-8.15342E-03 2.42361E-05
 -1      2065 1.02275E-07-2.44686E-05-2.06404E-06
 -1      2066-1.10207E-05-2.40971E-03 2.09820E-05
 -1      2067-1.85378E-05-3.95399E-03 1.10138E-05
 -1      2068-5.93844E-05-1.23604E-02-1.36323E-06
 -1      2069-3.61654E-05-7.74169E-03 2.20691E-05
 -1      2070-2.85424E-06-3.52395E-04 1.41250E-05
 -1      2071-1.58569E-06-2.57623E-04 5.10233E-06
 -1      2072-7.36062E-05-1.54758E-02 1.53221E-05
 -1      2073-2.75104E-06-7.58236E-04 9.83345E-06
 -1      2074-2.72682E-05-4.82880E-03-6.63248E-05
 -1      2075-3.95847E-05-7.48630E-03-7.46438E-05
 -1      2076-2.85731E-06-6.74536E-04 2.15288E-06
 -1      2077-5.29692E-05-1.03607E-02-7.73340E-05
 -1      2078-5.35660E-05-1.06534E-02-5.78964E-05
 -1      2079-8.70795E-05-1.64900E-02-2.12657E-04
 -1      2080-7.26033E-05-1.65429E-02 1.73790E-04
 -1      2081-7.90409E-05-1.61778E-02-4.02950E-05
 -1      2082-7.80037E-05-1.61069E-02-2.19580E-05
 -1      2083-8.60476E-05-1.64191E-02-1.94328E-04
 -1      2084-4.12661E-06-9.47077E-04 2.69763E-06
 -1      2085-1.95667E-05-4.25326E-03 2.82175E-05
 -1      2086-1.68519E-05-3.58009E-03-2.95121E-05
 -1      2087-1.71115E-05-3.57886E-03 1.60153E-05
 -1      2088-1.67225E-05-3.36625E-03 4.21002E-05
 -1      2089-1.60640E-05-3.36120E-03-2.36588E-06
 -1      2090-4.63893E-06-9.78988E-04 5.78920E-06
 -1      2091-3.72549E-06-7.90695E-04-4.80717E-06
 -1      2092-4.46495E-06-7.72146E-04 1.12835E-05
 -1      2093-5.54296E-06-9.65531E-04 2.33027E-05
 -1      2094-2.74955E-05-5.67880E-03 3.18297E-05
 -1      2095-3.94338E-06-9.27196E-04 1.44664E-05
 -1      2096-7.17910E-05-1.51054E-02 1.62067E-05
 -1      2097-1.10814E-05-1.62959E-03-3.06578E-05
 -1      2098-6.11459E-05-1.24395E-02-3.81330E-05
 -1      2099-6.00030E-05-1.26765E-02 1.98167E-05
 -1      2100-6.39414E-05-1.32847E-02-5.35775E-06
 -1      2101-5.97216E-05-1.23733E-02-9.61821E-06
 -1      2102-7.49001E-05-1.59516E-02 4.23148E-05
 -1      2103-4.10983E-05-8.69151E-03 2.49485E-05
 -1      2104-4.16262E-05-8.69136E-03 1.93581E-06
 -1      2105-7.06183E-05-1.40541E-02-8.35272E-05
 -1      2106-6.80871E-05-1.37562E-02-5.49620E-05
 -1      2107-8.00446E-05-1.65332E-02-2.28271E-05
 -1      2108-4.68170E-05-9.89391E-03 2.19791E-05
 -1      2109-4.61500E-05-9.95283E-03 5.87783E-05
 -1      2110-4.89001E-05-1.04285E-02 3.83359E-05
 -1      2111-6.59358E-05-1.37946E-02 6.88037E-06
 -1      2112-1.16924E-05-2.44535E-03-1.54614E-06
 -1      2113-7.37018E-05-1.55259E-02 1.87812E-05
 -1      2114-7.01974E-05-1.50208E-02 5.07256E-05
 -1      2115-3.00867E-06-6.20386E-04-1.10726E-06
 -1      2116-3.62700E-06-5.44739E-04 1.15620E-05
 -1      2117-3.81163E-05-7.94017E-03-1.32465E-06
 -1      2118-3.51286E-05-7.37908E-03 9.33784E-06
 -1      2119-2.57369E-05-4.52370E-03-6.29861E-05
 -1      2120-7.15957E-05-1.43415E-02-7.31928E-05
 -1      2121-1.51129E-05-3.11882E-03 2.28920E-05
 -1      2122-1.45151E-05-3.11603E-03-2.04273E-05
 -1      2123-3.20757E-05-6.93973E-03 4.03340E-05
 -1      2124-3.15625E-05-5.81444E-03-6.65807E-05
 -1      2125-4.44550E-05-8.57485E-03-7.27881E-05
 -1      2126-6.30431E-05-1.27663E-02-5.34304E-05
 -1      2127-5.99836E-05-1.21699E-02-4.96583E-05
 -1      2128-5.94112E-05-1.25343E-02 2.56629E-05
 -1      2129-5.03471E-05-1.08588E-02 5.57204E-05
 -1      2130-6.51490E-05-1.36956E-02 1.32776E-05
 -1      2131-2.90991E-05-6.28812E-03 4.91313E-05
 -1      2132-2.80822E-05-5.92044E-03 2.27510E-05
 -1      2133-2.82087E-05-5.88860E-03-1.34833E-06
 -1      2134-4.90401E-05-1.02681E-02 6.82519E-06
 -1      2135-2.25176E-05-4.73713E-03 9.23389E-06
 -1      2136-1.40348E-05-2.92468E-03 3.90131E-05
 -1      2137-4.07573E-05-8.70852E-03 3.29447E-05
 -1      2138-5.66390E-05-1.17372E-02-8.20083E-06
 -1      2139-5.55339E-05-1.18644E-02 4.55495E-05
 -1      2140-5.35274E-05-1.13293E-02 3.01098E-05
 -1      2141-1.48961E-06-2.66741E-04-4.46511E-07
 -1      2142-2.28776E-06-2.25793E-04 1.24632E-05
 -1      2143-9.07248E-07-3.06036E-04-9.42251E-06
 -1      2144-1.57575E-05-3.29459E-03 9.01684E-07
 -1      2145-7.86185E-05-1.58942E-02-6.44178E-05
 -1      2146-6.52056E-05-1.36390E-02 4.94127E-06
 -1      2147-6.37334E-05-1.33291E-02 4.50592E-06
 -1      2148-3.97789E-06-8.41532E-04-1.00509E-06
 -1      2149-1.92834E-06-4.03907E-04-1.94193E-06
 -1      2150 8.42118E-07-1.23249E-04-6.84904E-06
 -1      2151 5.35192E-06-4.48935E-05-1.76568E-05
 -1      2152 3.07095E-07-2.50015E-05-2.66726E-06
 -1      2153-3.71285E-06-1.02074E-04-1.40242E-05
 -1      2154 9.93875E-06-3.15668E-04-4.48164E-05
 -1      2155-3.79903E-05-7.15231E-03-7.35839E-05
 -1      2156-4.05394E-05-8.53540E-03 3.23730E-05
 -1      2157-1.28004E-06-9.98112E-05 4.82442E-06
 -1      2158-8.31418E-07-1.23295E-04-3.42988E-07
 -1      2159-3.61427E-06-7.87486E-04 1.02439E-05
 -1      2160-3.24476E-06-7.93792E-04 1.33469E-05
 -1      2161-2.50973E-05-5.23871E-03-2.45571E-07
 -1      2162-2.90376E-06-5.91853E-04 3.15329E-07
 -1      2163-2.50169E-06-7.48258E-04-1.31925E-05
 -1      2164-4.65557E-06-7.78346E-04 7.85878E-06
 -1      2165-5.98591E-05-1.18193E-02-7.78019E-05
 -1      2166-6.84670E-05-1.43613E-02 1.19156E-05
 -1      2167-4.56734E-06-9.36361E-04 1.27657E-08
 -1      2168-7.04763E-06-9.77332E-04 2.37150E-05
 -1      2169-5.69275E-05-1.10022E-02-1.65060E-04
 -1      2170-5.40621E-05-1.05980E-02-1.43342E-04
 -1      2171-5.23721E-05-1.05692E-02-6.47746E-05
 -1      2172-4.98075E-05-1.01677E-02-4.33908E-05
 -1      2173-7.30942E-05-1.49005E-02-4.31042E-05
 -1      2174-7.31202E-05-1.51865E-02-8.53097E-06
 -1      2175-5.35274E-05-1.09702E-02-2.23343E-05
 -1      2176-5.12581E-05-1.00039E-02-7.63693E-05
 -1      2177-2.45584E-05-5.17091E-03 2.35367E-05
 -1      2178-2.21193E-05-4.67119E-03 3.23143E-05
 -1      2179-7.66189E-05-1.54987E-02-6.11488E-05
 -1      2180-3.07470E-06-5.65087E-05-1.14497E-05
 -1      2181-6.54907E-05-1.39111E-02 3.52230E-05
 -1      2182-6.29963E-05-1.27896E-02-4.25867E-05
 -1      2183-7.75848E-05-1.58234E-02-4.60818E-05
 -1      2184-2.58264E-06-6.04489E-04 6.05685E-06
 -1      2185-4.52115E-05-9.50451E-03 1.86845E-05
 -1      2186-4.58558E-05-9.44779E-03-1.79817E-05
 -1      2187-2.36258E-06-1.69785E-04-6.86368E-06
 -1      2188-1.16180E-05-1.28704E-03-4.24084E-05
 -1      2189-6.35173E-05-1.34007E-02 2.28717E-05
 -1      2190 4.62563E-07-2.72055E-04-7.98022E-06
 -1      2191 8.10301E-06-1.40888E-04-2.99440E-05
 -1      2192-6.25204E-06-1.15121E-03 9.66721E-06
 -1      2193-7.97678E-06-1.37311E-03 2.72815E-05
 -1      2194-4.99718E-06-1.11941E-03-9.08162E-06
 -1      2195-6.23586E-05-1.30846E-02 9.64216E-06
 -1      2196-6.33312E-05-1.33516E-02 1.73962E-05
 -1      2197-2.66784E-05-5.58150E-03 4.29578E-06
 -1      2198-2.65786E-05-5.61052E-03 4.19233E-05
 -1      2199-2.33211E-05-5.00519E-03-4.81765E-05
 -1      2200-4.05870E-06-1.00228E-03 7.41852E-06
 -1      2201 1.00222E-06-7.67477E-04-2.79967E-05
 -1      2202-3.55092E-06-1.00802E-03-9.16504E-06
 -1      2203 7.94768E-06-9.71053E-04-7.42130E-05
 -1      2204-6.80055E-05-1.44932E-02 4.24962E-05
 -1      2205-6.62841E-05-1.34119E-02-5.07067E-05
 -1      2206-7.75885E-05-1.66390E-02 6.14554E-05
 -1      2207-7.89513E-05-1.61614E-02-3.50026E-05
 -1      2208-4.38534E-05-9.11568E-03-3.12615E-06
 -1      2209-4.98115E-05-9.85295E-03-1.42053E-04
 -1      2210-8.63552E-05-1.66962E-02-1.59229E-04
 -1      2211-6.10721E-05-1.24661E-02-3.26535E-05
 -1      2212-3.77222E-05-7.97784E-03 2.45188E-05
 -1      2213-3.48023E-05-7.41595E-03 3.48858E-05
 -1      2214-6.79293E-05-1.35984E-02-7.61203E-05
 -1      2215-6.53793E-05-1.29821E-02-9.08456E-05
 -1      2216-6.36919E-05-1.32524E-02-1.19795E-06
 -1      2217-6.61253E-05-1.38685E-02 1.37124E-05
 -1      2218-1.25687E-05-2.30058E-03 2.50116E-05
 -1      2219-5.40924E-05-1.13312E-02 1.28726E-05
 -1      2220-5.10496E-05-1.09250E-02 5.09836E-05
 -1      2221-6.21531E-06-1.35692E-03-3.96734E-06
 -1      2222-6.78599E-06-1.57262E-03-1.36670E-05
 -1      2223-8.79967E-06-1.53383E-03 1.74011E-05
 -1      2224-3.44138E-06-8.91012E-04 1.05885E-05
 -1      2225-5.82635E-05-1.23908E-02 3.76572E-05
 -1      2226-6.39778E-05-1.30562E-02-3.48907E-05
 -1      2227 5.37015E-06-1.32232E-03-8.03913E-05
 -1      2228-7.52796E-05-1.54120E-02-3.68391E-05
 -1      2229-7.53646E-07-1.63069E-04-2.23138E-06
 -1      2230-2.07063E-05-4.35169E-03 6.28141E-06
 -1      2231-6.49998E-05-1.32586E-02-3.95036E-05
 -1      2232-6.79815E-05-1.44212E-02 3.51456E-05
 -1      2233-7.11928E-05-1.48492E-02 2.30992E-06
 -1      2234-6.86667E-05-1.42663E-02-4.93872E-06
 -1      2235-9.97930E-06-2.24831E-03-2.80310E-05
 -1      2236-1.19165E-05-2.50782E-03-7.80075E-06
 -1      2237-3.30698E-05-7.09093E-03 5.51221E-05
 -1      2238-3.34490E-05-7.05491E-03 1.52880E-05
 -1      2239-3.16010E-05-6.72658E-03 3.40199E-05
 -1      2240 2.22641E-06-1.75574E-03-9.01868E-05
 -1      2241-3.08757E-05-6.61051E-03 3.09509E-05
 -1      2242-8.21408E-06-1.77223E-03-1.32891E-05
 -1      2243-9.55843E-06-2.02879E-03-7.19482E-06
 -1      2244-8.13338E-05-1.66676E-02-3.26642E-05
 -1      2245-1.08035E-05-2.27311E-03-2.04470E-06
 -1      2246-1.28211E-05-2.53923E-03 1.94475E-05
 -1      2247-3.97822E-05-8.31725E-03 4.90702E-06
 -1      2248-7.08575E-05-1.37262E-02-1.45256E-04
 -1      2249-4.79706E-05-9.92890E-03-1.03079E-05
 -1      2250 1.27664E-07-3.35793E-06-3.71807E-07
 -1      2251-6.50712E-07-4.55372E-05 1.17001E-06
 -1      2252-6.16297E-05-1.27496E-02-1.16781E-05
 -1      2253-3.06360E-05-6.48894E-03 1.38239E-05
 -1      2254-3.03224E-05-6.30856E-03-3.00607E-06
 -1      2255-6.04874E-05-1.29396E-02 4.78923E-05
 -1      2256-3.43387E-05-7.19441E-03 3.48860E-05
 -1      2257-3.18178E-05-6.66625E-03 1.73967E-05
 -1      2258-1.86005E-05-3.88208E-03-5.22079E-06
 -1      2259-7.78258E-05-1.64067E-02 2.45940E-05
 -1      2260-1.78126E-05-3.98984E-03-4.87867E-05
 -1      2261-1.98964E-05-4.07004E-03 2.84158E-05
 -1      2262-1.81074E-05-3.75912E-03 2.77640E-06
 -1      2263-4.79673E-06-1.72514E-03-5.07712E-05
 -1      2264-8.84948E-06-1.80437E-03 4.44789E-06
 -1      2265-3.25525E-06-1.19196E-03-2.58151E-05
 -1      2266-6.67816E-05-1.37144E-02-2.63387E-05
 -1      2267-1.85427E-05-3.96741E-03 1.98160E-05
 -1      2268-1.37969E-05-2.86503E-03 2.78838E-06
 -1      2269-3.40301E-05-7.06073E-03-9.66947E-06
 -1      2270-6.10121E-06-1.67942E-03-1.83640E-05
 -1      2271-2.36669E-05-4.92352E-03-8.48393E-06
 -1      2272-2.57083E-05-5.35623E-03 8.98905E-06
 -1      2273-4.99653E-05-1.04800E-02 1.57799E-05
 -1      2274-5.08648E-05-1.04062E-02-3.12546E-05
 -1      2275-1.54680E-05-3.09844E-03 1.57152E-05
 -1      2276-1.14897E-05-2.76356E-03-3.03674E-05
 -1      2277-1.43983E-05-3.30983E-03-3.24380E-05
 -1      2278-2.55840E-05-5.31633E-03 4.13267E-06
 -1      2279-2.70814E-05-5.63479E-03-1.24099E-05
 -1      2280-1.78741E-05-3.81812E-03 3.75814E-05
 -1      2281-1.30230E-05-2.56933E-03 1.47866E-05
 -1      2282-1.50731E-05-2.84932E-03 3.78722E-05
 -1      2283-3.91133E-05-8.35687E-03 4.60980E-05
 -1      2284-1.79464E-05-3.66162E-03 2.21968E-05
 -1      2285-2.09488E-05-4.35460E-03 2.85725E-06
 -1      2286-5.51387E-07-9.96132E-06 1.49927E-06
 -1      2287-1.37585E-06-3.99051E-05 6.53045E-06
 -1      2288-1.98961E-05-4.19642E-03 2.48466E-05
 -1      2289-7.09548E-05-1.46064E-02-2.23971E-05
 -1      2290-7.42180E-05-1.50347E-02-5.52555E-05
 -1      2291-2.08494E-05-4.34577E-03 9.84448E-07
 -1      2292-7.00437E-05-1.42143E-02-4.99171E-05
 -1      2293 9.77862E-07-5.88471E-04-1.80086E-05
 -1      2294 9.52731E-06-4.70089E-04-4.81754E-05
 -1      2295 2.39234E-06-4.15072E-04-2.09732E-05
 -1      2296-5.88361E-05-1.22218E-02-3.61569E-06
 -1      2297 4.28750E-07-4.61603E-06-2.57826E-06
 -1      2298-8.29680E-06-1.58454E-03 1.95935E-05
 -1      2299-1.06622E-05-2.05428E-03 1.79798E-05
 -1      2300-2.21632E-05-4.63750E-03-2.55701E-05
 -1      2301 8.46843E-06-7.66032E-04-5.96114E-05
 -1      2302-3.24170E-06-3.24341E-04 1.11824E-05
 -1      2303-2.43433E-05-5.04284E-03 2.49632E-05
 -1      2304-7.31794E-05-1.51777E-02-7.92429E-06
 -1      2305-7.30530E-05-1.53770E-02 2.00549E-05
 -1      2306-5.72504E-05-1.20484E-02 2.10032E-05
 -1      2307-7.75503E-05-1.64407E-02 3.36367E-05
 -1      2308 2.50586E-06-5.82126E-04-3.13083E-05
 -1      2309-1.11562E-06-8.10158E-05 3.26540E-06
 -1      2310 6.45880E-07-4.10021E-04-1.54469E-05
 -1      2311-2.11357E-05-4.59912E-03-5.11303E-05
 -1      2312-6.57425E-06-1.96886E-03-4.04895E-05
 -1      2313-2.20291E-06-2.07865E-04 6.88563E-06
 -1      2314-3.05033E-05-6.39954E-03 4.11826E-05
 -1      2315-3.25498E-05-6.79004E-03 1.46700E-05
 -1      2316-4.33614E-05-9.22332E-03 4.42820E-05
 -1      2317-4.60229E-05-9.64584E-03 1.55616E-05
 -1      2318-1.69292E-06-5.21556E-04-9.20117E-06
 -1      2319-3.72264E-05-7.70700E-03-1.12337E-05
 -1      2320-3.20678E-06-4.66890E-04 6.93603E-06
 -1      2321-4.22313E-05-8.83379E-03 1.17847E-05
 -1      2322-2.89661E-05-6.03438E-03 1.09997E-05
 -1      2323-7.27872E-05-1.52891E-02 1.63266E-05
 -1      2324-2.28947E-05-4.75236E-03 7.10070E-06
 -1      2325-3.70250E-05-7.80695E-03 3.48858E-05
 -1      2326-3.52934E-05-7.37749E-03 9.75711E-06
 -1      2327-3.86488E-05-8.08278E-03 9.95765E-06
 -1      2328-4.75960E-05-1.00804E-02 3.67543E-05
 -1      2329-6.71097E-05-1.38750E-02-1.33101E-05
 -1      2330-7.89395E-05-1.66215E-02 1.93902E-05
 -1      2331-2.86602E-05-5.99245E-03 1.69189E-05
 -1      2332-4.17731E-05-8.77780E-03 1.84340E-05
 -1      2333-4.05841E-05-8.39223E-03-1.36089E-05
 -1      2334-1.54806E-05-3.58188E-03-5.22691E-05
 -1      2335-7.22955E-05-1.47855E-02-3.54046E-05
 -1      2336-5.34185E-05-1.09601E-02-2.78970E-05
 -1      2337-5.93443E-05-1.18583E-02-7.88172E-05
 -1      2338-5.51309E-05-1.16776E-02 3.41296E-05
 -1      2339-3.88445E-05-8.11423E-03 1.16375E-05
 -1      2340-7.60766E-05-1.50674E-02-1.00951E-04
 -1      2341-7.66339E-05-1.56202E-02-4.32770E-05
 -1      2342-3.57897E-05-7.48551E-03 1.49825E-05
 -1      2343-4.80859E-05-9.73200E-03-6.41383E-05
 -1      2344-9.20102E-06-2.45843E-03-4.57193E-05
 -1      2345-8.72175E-08-1.60008E-05 1.93448E-06
 -1      2346 1.72560E-06-2.80604E-06-4.85032E-06
 -1      2347-8.25705E-05-1.59383E-02-1.59280E-04
 -1      2348-7.84344E-05-1.56089E-02-9.27671E-05
 -1      2349-5.63871E-06-1.35550E-03-6.82580E-06
 -1      2350-1.28556E-05-2.70801E-03-2.14172E-05
 -1      2351-5.65387E-06-2.86947E-03-1.14157E-04
 -1      2352-6.68811E-05-1.29679E-02-1.44942E-04
 -1      2353-6.47341E-05-1.24753E-02-1.58606E-04
 -3
    1PSTEP                         2           1           1          
  100CL  101 1.000000000        2353                     0    1           1
 -4  STRESS      6    1
 -5  SXX         1    4    1    1
 -5  SYY         1    4    2    2
 -5  SZZ         1    4    3    3
 -5  SXY         1    4    1    2
 -5  SYZ         1    4    2    3
 -5  SZX         1    4    3    1
 -1         1-1.00032E+05-1.08540E+05-2.46665E+05-1.00412E+04 1.75521E+05-6.35130E+04
 -1         2 2.69064E+01-9.28287E+00 6.02832E+01-8.08133E+00-1.87852E+01 3.85761E+01
 -1         3 7.52306E+01-1.79214E+01 1.06326E+02-2.07419E+01 5.15151E+01-3.51482E+01
 -1         4-4.32133E+04-4.99837E+04-1.27678E+05 9.20800E+03 1.10322E+05 1.90442E+04
 -1         5 7.18112E+01 8.54340E+00 3.76275E+02-4.01121E+01-2.48826E+01-2.36117E+02
 -1         6-2.46208E+04-2.47728E+04-1.20403E+05 1.47771E+04 1.33067E+05 1.90438E+04
 -1         7 2.56807E+04 2.22832E+04-1.85501E+05 3.70852E+03 6.79188E+04-2.33831E+03
 -1         8 9.52882E+03-9.62071E+03-2.86616E+05-2.67009E+03 4.45896E+04 9.77713E+03
 -1         9-1.46759E+04-1.86580E+04-1.76106E+05 3.15277E+03 2.16771E+04-8.83278E+03
 -1        10 5.92579E+03-3.21943E+03-1.78723E+05 7.73145E+01-2.76284E+03 4.05103E+03
 -1        11 4.89485E+03-4.90018E+02-2.02580E+05-3.94106E+03-8.20788E+03-4.71998E+03
 -1        12 1.06558E+04 1.44984E+04-2.10605E+05-5.87045E+03-1.24044E+04-5.45311E+03
 -1        13 5.69076E+03 4.58555E+03-1.71101E+05 1.68678E+03-5.13969E+03-2.25965E+03
 -1        14-1.21623E+04-2.06394E+04-1.39646E+05-5.25241E+03-3.13510E+03 7.54506E+03
 -1        15 1.01296E+04 1.04743E+04-1.39171E+05 1.11168E+02-2.76361E+03 4.53202E+02
 -1        16 6.70787E+02-1.67391E+03-1.29721E+05 1.66072E+03-7.47039E+03-2.70873E+03
 -1        17-6.18421E+02 1.49170E+03-1.24711E+05-2.02985E+03-8.90971E+03 5.25970E+03
 -1        18-1.60310E+03-6.23760E+03-9.62227E+04 3.54966E+02-7.34184E+03 2.33768E+03
 -1        19-7.01064E+02 1.08386E+02-9.69561E+04 5.79820E+02-1.16256E+04-4.40197E+03
 -1        20 4.45458E+02-9.79896E+00-8.77711E+04-8.03905E+02-7.07012E+03 3.03397E+03
 -1        21-1.39052E+03-1.05722E+02-7.71808E+04-2.60802E+02-8.45601E+03 7.39530E+02
 -1        22 6.36504E+02-7.57969E+02-6.39563E+04-6.44644E+02-6.22708E+03 3.27074E+03
 -1        23-1.14065E+03-1.34777E+02-5.76454E+04 1.95465E+02-8.13370E+03-8.58128E+02
 -1        24 2.12064E+02-2.13112E+01-4.94276E+04-5.58842E+02-5.46775E+03 2.36752E+03
 -1        25-7.81610E+02-9.04438E+01-4.20475E+04-1.74645E+02-5.89321E+03 8.53933E+02
 -1        26 1.92956E+02-4.65268E+02-3.33279E+04-3.86787E+02-4.47419E+03 2.06326E+03
 -1        27-5.29341E+02-1.32114E+02-2.84331E+04 1.13549E+02-5.30830E+03 3.44114E+02
 -1        28-1.21209E+03-2.86427E+03-1.66902E+04 1.93793E+02-4.73738E+03 2.15955E+03
 -1        29 1.82710E+03 1.35821E+03-2.42399E+04-4.30213E+02-3.82340E+03 9.24421E+02
 -1        30-6.99273E+02-1.27608E+03-9.09329E+03-1.20560E+02-2.84020E+03 6.32493E+02
 -1        31-2.56006E+00-5.85676E+02-8.20538E+03-2.51847E+02-2.43454E+03-8.61429E+02
 -1        32 2.27806E+02 2.48331E+02-7.30398E+03-9.71012E+01-1.72366E+03 3.46552E+02
 -1        33-7.58927E+01-2.55028E+02-3.12542E+03-4.32229E+01-1.29210E+03 2.03585E+02
 -1        34 1.09137E+02-1.88298E+02-1.44259E+03-3.56501E+01-9.13355E+02-2.47531E+02
 -1        35-1.54469E+01-5.35567E+01-3.19037E+02-5.12828E+01-4.31383E+02-1.49459E+02
 -1        36-7.07094E+03-4.43683E+04-2.10617E+05 1.06342E+04 1.29000E+05-4.19363E+04
 -1        37 2.62555E+04 9.15883E+03-2.73782E+05-1.16812E+04 6.89442E+04 1.93870E+04
 -1        38-2.40942E+04-9.98717E+03-1.96184E+05-1.00889E+04 3.84208E+04 6.21577E+03
 -1        39-8.50409E+03-2.09204E+04-2.29966E+05-7.44872E+03 2.41999E+03 8.95406E+03
 -1        40-7.67588E+01-1.66501E+04-1.96234E+05-9.32787E+03-1.50018E+04 1.98475E+04
 -1        41 1.47287E+04-2.44548E+04-1.56267E+05-7.50962E+03-1.91623E+04-1.48239E+03
 -1        42 4.87991E+03 7.43776E+03-1.91152E+05-6.05339E+03-8.66206E+03-2.49590E+04
 -1        43 8.06367E+03-5.46226E+03-1.57771E+05-3.23236E+03-1.05299E+04-6.92984E+03
 -1        44 7.10467E+03 3.74559E+03-1.33802E+05-9.54139E+03-1.42616E+03-6.64672E+03
 -1        45 1.05610E+04 5.09300E+03-1.19641E+05-3.20374E+03-9.16283E+03-1.06911E+04
 -1        46 3.09153E+03-3.93069E+03-1.35833E+05-5.57402E+03-1.18619E+04-3.70597E+03
 -1        47 3.75035E+03 5.13202E+02-1.02711E+05-4.63315E+03-1.13831E+04-5.27270E+03
 -1        48 4.91943E+03-2.31593E+03-8.13065E+04-4.10953E+03-1.29619E+04-4.92695E+03
 -1        49 2.06218E+03-4.67488E+02-9.96058E+04-4.08754E+03-1.30923E+04-7.27569E+03
 -1        50 5.00669E+03 1.27525E+03-6.90605E+04-3.72027E+03-1.08270E+04-1.38445E+03
 -1        51 3.32055E+03 7.02894E+02-7.16978E+04-3.50149E+03-1.00663E+04-2.12496E+03
 -1        52 4.12862E+03 6.61301E+02-4.87048E+04-2.83019E+03-9.53100E+03-9.23946E+02
 -1        53 1.66277E+03 3.55469E+02-5.54743E+04-2.53503E+03-9.35652E+03-2.86336E+03
 -1        54 3.07107E+03 9.62517E+02-3.83110E+04-2.09100E+03-7.58898E+03-2.11426E+02
 -1        55 1.98733E+03 6.51228E+02-3.80013E+04-1.90876E+03-6.81421E+03-6.18401E+02
 -1        56 2.12865E+03 4.01626E+02-2.51639E+04-1.40663E+03-6.27605E+03 1.46725E+02
 -1        57-9.70491E+02 2.33549E+02-2.93259E+04-1.37462E+03-6.59741E+03 9.29419E+02
 -1        58 4.01883E+02-6.82534E+02-1.48611E+04 2.60407E+02-4.35210E+03 4.06988E+03
 -1        59 2.09015E+03 1.58347E+03-1.50925E+04 1.46902E+02-4.50100E+03 9.38385E+01
 -1        60-7.33458E+02-1.57815E+03-8.15091E+03-6.27924E+02-3.07156E+03 4.79946E+02
 -1        61-8.03443E+02-1.03064E+03-9.33260E+03-3.56466E+02-2.45053E+03-1.07695E+02
 -1        62 2.10691E+02-1.20574E+02-4.81417E+03-8.07961E+01-1.69918E+03-6.96183E+01
 -1        63 4.83082E+02 3.59608E+01-1.76688E+03-1.09158E+02-1.15377E+03-1.07581E+02
 -1        64 1.07033E+02-1.08752E+02-1.05293E+03-5.08949E+01-8.03519E+02-9.53026E+01
 -1        65-3.32143E+00-5.20772E+01-5.16629E+01-4.69068E+01-2.25225E+02-4.19984E+01
 -1        66-3.76737E+02-1.15156E+01-1.94380E+01-2.84903E+01-2.12349E+01-2.22648E+02
 -1        67-1.29496E+03 2.82155E+01 2.23757E+02-1.52122E+02-1.13084E+01 1.52653E+01
 -1        68-1.55746E+03 6.64431E+01 3.72731E+02-3.45367E+02-3.14163E+00 1.00935E+03
 -1        69-2.34139E+02-1.60748E+02-1.39296E+02-3.93203E+02-1.34555E+02 1.80042E+03
 -1        70 7.63511E+02 1.22747E+01-3.10512E+02-5.98559E+02 1.45615E+00 1.06775E+03
 -1        71-1.07980E+02 2.14334E+01 3.33259E+01-2.91231E+00-7.13716E+00-1.01777E+02
 -1        72-8.50539E+02-3.81736E+01 3.52342E+01-1.10556E+02-1.12639E+01-8.82941E+01
 -1        73-1.35475E+03 1.00789E+02 2.46983E+02-2.29019E+02-3.32144E+01 3.89446E+02
 -1        74-7.48204E+02 1.14841E+01 1.16009E+02-2.11865E+02-4.37260E+01 1.21340E+03
 -1        75 3.68498E+01-1.93307E+02-3.33853E+02-4.64960E+02-5.77144E+00 1.34747E+03
 -1        76 6.82673E+02 1.13145E+02-1.95599E+01-3.68489E+02 1.13304E+02 4.85325E+02
 -1        77 7.28979E+03 4.63348E+03-1.37845E+05-6.65206E+03-1.47058E+04-3.87608E+03
 -1        78 1.85223E+03-1.00426E+03-1.30445E+05-3.80788E+03-2.37777E+03 1.30054E+03
 -1        79 3.79621E+02-1.06759E+02-1.12125E+05 3.15598E+02-1.00066E+03 1.63528E+03
 -1        80-1.26528E+03 2.06697E+02-9.64493E+04 5.93353E+02-1.12625E+03 3.03701E+03
 -1        81-1.09960E+03-2.38497E+02-7.90200E+04 1.10337E+03-1.34007E+03 1.99433E+03
 -1        82-8.07367E+02-8.96479E+02-6.57602E+04 8.67757E+02-6.59455E+02 3.02388E+03
 -1        83-1.05807E+03-7.89495E+02-5.29342E+04 1.34592E+03 8.59526E+02 3.08981E+03
 -1        84-7.70929E+02-6.52879E+02-3.78845E+04 4.00555E+02-2.66286E+02 1.95882E+03
 -1        85-4.79032E+00-2.29819E+02-2.68757E+04 5.51614E+02-8.46567E+02 1.46435E+03
 -1        86 4.19319E+02-2.33289E+02-1.95770E+04 8.26990E+02-1.86047E+03 1.09188E+03
 -1        87-1.95034E+02-1.12478E+02-1.38770E+04 4.22833E+02-9.16748E+02 1.26207E+03
 -1        88 5.70198E+01 1.90742E+01-7.90406E+03 3.15604E+02-3.44262E+02 5.03581E+02
 -1        89-1.23375E+02-1.99754E+01-4.31531E+03 7.53470E+01-2.12620E+02 8.12543E+02
 -1        90 4.39412E+01-1.16706E+02-8.58686E+02 1.36707E+02-3.24533E+02 3.67639E+02
 -1        91-1.22512E+04-5.88704E+03-1.57393E+05 7.19988E+03 3.62494E+04 5.62966E+03
 -1        92 2.05651E+03-3.27621E+03-1.33107E+05-2.97976E+03 9.78367E+03-1.44931E+03
 -1        93 8.89659E+02 6.91068E+02-1.27252E+05-2.15572E+03-4.32554E+03 1.98524E+03
 -1        94-8.78327E+02-3.62793E+03-1.08983E+05-2.07452E+03-1.53776E+03 1.53856E+03
 -1        95-3.26172E+03 4.33095E+03-9.24390E+04-3.17158E+02-6.93702E+02 1.89757E+03
 -1        96-1.14726E+03 2.45948E+02-7.53485E+04-1.20542E+03-2.61888E+03 2.05433E+03
 -1        97-1.03358E+03 2.92171E+03-5.98286E+04-1.56734E+03-1.87377E+03 2.58002E+03
 -1        98-2.03050E+03 1.54166E+03-4.69577E+04 7.77744E+02-1.48022E+02 2.29957E+03
 -1        99-1.96569E+03 2.12166E+03-3.59815E+04 5.89929E+02-1.37508E+03 2.07273E+03
 -1       100-1.52246E+03 1.73517E+03-2.63738E+04-2.96897E+02-1.16866E+03 1.42207E+03
 -1       101-7.77754E+00-8.38885E+02-1.76743E+04-3.84088E+02-1.92248E+03 9.01619E+02
 -1       102-5.70007E+02 8.24948E+02-1.16187E+04 7.35171E+01-6.30279E+02 9.42030E+02
 -1       103 1.74174E+02-8.31516E+02-6.06817E+03 9.92208E+01-6.07628E+02 6.61474E+02
 -1       104-4.14556E+02-2.60387E+02-2.75889E+03 1.98319E+01 7.39701E+00 5.75841E+02
 -1       105 4.02309E+01-1.24902E+02-3.73935E+02 8.26134E+01-1.43944E+02 2.08150E+02
 -1       106 1.83957E+05 2.02893E+05 4.81761E+05 4.22442E+03 4.03527E+04 1.04985E+05
 -1       107 3.63536E+05 2.77166E+05 9.54618E+05 7.91486E+03-2.37196E+04 5.51389E+04
 -1       108 4.22842E+05 3.78827E+05 1.07978E+06-2.48448E+04-8.94097E+04-6.28410E+03
 -1       109 3.18790E+05 3.22825E+05 7.57673E+05-7.39290E+02-5.23454E+04-4.28398E+04
 -1       110 1.00299E+05 1.00391E+05 2.34055E+05-6.57669E+00 3.48285E+04-1.88255E+04
 -1       111 9.40143E+04 8.34255E+04 1.72998E+05 8.72970E+03 1.28908E+05 5.45244E+04
 -1       112 3.25006E+05 3.26287E+05 7.54658E+05-1.17616E+03-4.78648E+04 7.36518E+04
 -1       113 4.78289E+05 4.80426E+05 1.11436E+06 1.95967E+02-1.03439E+05 2.51876E+04
 -1       114 4.17871E+05 4.18518E+05 9.73582E+05 4.56064E+02-9.57909E+04-2.75886E+04
 -1       115 2.06234E+05 2.05880E+05 4.80481E+05-1.53344E+01-1.02351E+04-3.77534E+04
 -1       116-2.17535E+04-2.15677E+04-5.01865E+04 2.74470E+02 8.68097E+04-3.67816E+03
 -1       117 1.08959E+02 1.99862E+01 2.91894E+02-5.36584E+01-1.26838E+01-1.34304E+02
 -1       118-7.28359E+03 7.76116E+02-1.85185E+05 7.55711E+01-2.38546E+03 4.50593E+03
 -1       119-7.81745E+03 1.59052E+03-1.77218E+05-1.34975E+03 4.27413E+03 5.23974E+03
 -1       120-1.52135E+03 9.70603E+02-1.44959E+05-4.88542E+02-1.42509E+03 6.39996E+00
 -1       121-3.75864E+03 1.28676E+03-1.22001E+05-5.35064E+02 2.75407E+03-9.03188E+02
 -1       122-1.46725E+03 1.12706E+03-9.75865E+04-6.10049E+02-4.06103E+01-1.66121E+03
 -1       123-3.00025E+03 7.63929E+02-7.95935E+04-8.88319E+02 1.18391E+03-1.04547E+03
 -1       124-1.21949E+03-4.61846E+01-6.46097E+04-4.01769E-01-8.56234E+01 5.84062E+02
 -1       125 2.61523E+02-1.36497E+03-4.66766E+04-1.84993E+02-6.44518E+02-1.36034E+03
 -1       126 1.73419E+02-1.15572E+03-3.32320E+04 1.73164E+02-1.68866E+03-1.21311E+03
 -1       127 1.18026E+03-1.02747E+03-2.31384E+04-1.28785E+01 1.28227E+02-1.78862E+03
 -1       128-2.58612E+02 1.88612E+02-1.61947E+04-1.40584E+02 4.77110E+02-3.72267E+02
 -1       129 4.54797E+02-4.79262E+00-8.55765E+03-7.61650E+01 1.38597E+02-4.70721E+02
 -1       130-2.06909E+01-2.64876E+01-4.31826E+03-1.39637E+02 1.37334E+02 1.37290E+02
 -1       131 1.17023E+02-2.56780E+02-4.95219E+02 4.05499E+01 1.35007E+01 8.57400E+00
 -1       132-1.14349E+04-3.12797E+03-1.75200E+05-2.25562E+02-8.62693E+03 1.48986E+04
 -1       133-5.05739E+03 4.10512E+03-1.73968E+05-4.97825E+02-3.03988E+03 5.98074E+03
 -1       134-5.64944E+03 3.15312E+02-1.63861E+05-8.50000E+01-1.81686E+03 3.17563E+03
 -1       135 4.69021E+02 2.34896E+03-1.32086E+05-2.23175E+02-3.36361E+03-2.03127E+02
 -1       136-5.51859E+03-1.12618E+03-1.14312E+05-2.84464E+02-2.15392E+03-8.86279E+02
 -1       137-1.74303E+03 5.32918E+02-9.10978E+04 7.39816E+02-2.05110E+03-8.70641E+02
 -1       138-2.75337E+03-3.04266E+01-7.27501E+04 6.49266E+01-5.88401E+02 1.16164E+01
 -1       139-1.80499E+03 9.53326E+02-5.68592E+04-5.09557E+02 1.14788E+03-1.78419E+02
 -1       140-1.77246E+03-8.39885E+02-4.33479E+04-1.95730E+03 4.20166E+01-1.38135E+02
 -1       141-2.43676E+03-1.54307E+03-3.22363E+04 8.23372E+01 9.56417E+02-5.92938E+02
 -1       142 6.91888E+02-3.07066E+02-1.98829E+04 2.35520E+02-3.55086E+02-7.81732E+02
 -1       143-7.41631E+02-1.76301E+02-1.33451E+04 4.40119E+00-1.56039E+02-2.06198E+02
 -1       144 6.82460E+02-1.51964E+02-6.08988E+03 1.31103E+02-2.09312E+02-1.26625E+02
 -1       145-4.84819E+01-3.75524E+02-2.35761E+03 6.35451E+01 1.77186E+01 6.98330E+01
 -1       146 1.03620E+02-7.81314E+01-6.51151E+01 3.50011E+01-7.68702E+00-4.37322E+01
 -1       147-2.21986E+04-2.76846E+04-8.76660E+04 1.65576E+04 2.06141E+05 1.29271E+04
 -1       148-2.55078E+05-2.13759E+05-7.07302E+05 1.27094E+04 2.73874E+04-9.47134E+04
 -1       149-3.78846E+05-3.54982E+05-9.11107E+05-8.64007E+03-8.29066E+04-3.66083E+04
 -1       150-3.59445E+05-2.87857E+05-9.64374E+05 1.78518E+04-3.06605E+04 2.77139E+03
 -1       151-2.46983E+05-1.68043E+05-6.63527E+05-4.20961E+03-2.23964E+03 2.92409E+04
 -1       152-1.23951E+05-9.84657E+04-3.13086E+05 7.15629E+02 2.68221E+04 1.92683E+04
 -1       153-2.60922E+05-2.42961E+05-5.57227E+05 4.16870E+03 9.75230E+04-1.22873E+05
 -1       154-3.48849E+05-3.49753E+05-8.14817E+05 2.74302E+02-5.75368E+04-5.54967E+04
 -1       155-4.36665E+05-4.37488E+05-1.01794E+06-1.55719E+02-1.15085E+05-1.94886E+04
 -1       156-3.93671E+05-3.93974E+05-9.17975E+05 1.78637E+02-7.51444E+04 1.99196E+04
 -1       157-1.66392E+05-1.06994E+05-4.45949E+05 8.74372E+02 1.35120E+04 2.31464E+04
 -1       158-6.80251E+04-6.58735E+04-1.62510E+05-1.87906E+03 9.11361E+04 2.12671E+04
 -1       159 1.91298E+02 5.05861E+01 1.63463E+01 5.15559E+01 7.68145E+01 2.14704E+02
 -1       160-1.58279E+02 8.08768E+00 2.11635E+01-1.36687E+02 3.06884E+01-1.14495E+02
 -1       161-1.20060E+03 2.45728E+02-4.78653E+02-4.61707E+02 4.16579E+01-9.21396E+02
 -1       162-2.10910E+03 2.19120E+02 1.49159E+01-7.27498E+02 1.91306E+02-1.52538E+03
 -1       163-1.58604E+03 1.07479E+02 1.89518E+02-3.53423E+02 4.50893E+00-8.15109E+02
 -1       164 1.26357E+02 6.31600E+01 1.53512E+01 3.55206E+01 2.90649E+01 9.64166E+01
 -1       165 4.96643E+01 2.43071E+01 4.80123E+01-2.89135E+00 1.82718E+01 8.53843E+01
 -1       166-7.23183E+02 9.45844E+01 3.14651E+00-2.92991E+02 1.24197E+02-3.84512E+02
 -1       167-1.78337E+03 1.89998E+02-6.33666E+01-4.79357E+02-1.19162E+02-1.05949E+03
 -1       168-1.65252E+03 3.18778E+00 3.68072E+02-6.81911E+02 9.66512E+01-1.08248E+03
 -1       169-7.94127E+02 1.59917E+02 2.88464E+02-1.14922E+02-6.19352E+01-5.30129E+02
 -1       170-5.62562E+02-4.08301E+01 4.65752E+04-1.61894E+01-3.07285E+03-5.74409E+03
 -1       171-4.96605E+01 1.48324E+03 3.32924E+04-5.33056E+02-2.56239E+03-5.41869E+03
 -1       172 4.25464E+04-9.30409E+01 7.03394E+05 1.96372E+03-9.97024E+03 1.82951E+04
 -1       173 5.79385E+04-6.00997E+02 6.87449E+05-1.11702E+03-1.08588E+04 1.37895E+04
 -1       174 2.99325E+04-2.88757E+02 6.56539E+05 3.29081E+02-1.03150E+04 1.32130E+04
 -1       175 3.38656E+04-6.04125E+02 5.94992E+05-1.08134E+03-9.77143E+03 1.46704E+04
 -1       176-8.70920E+02 1.78488E+02 2.22534E+04-5.93654E+01-1.66473E+03-2.29741E+03
 -1       177-9.47342E+02-4.43910E+02 1.70508E+04 3.80555E+01-1.12024E+03-3.73480E+02
 -1       178-7.60006E+02-3.01022E+01 1.23272E+04-1.74510E+01-1.34872E+03-2.40632E+03
 -1       179-9.37968E+02 2.50490E+02 3.49478E+04-9.97720E+01-1.92360E+03-1.59847E+03
 -1       180-1.10093E+03 4.09978E+02 2.65404E+04 4.59051E+01-1.68731E+03 2.50620E+03
 -1       181-1.35036E+03 2.30627E+02 6.86704E+04-9.06778E+01-3.19560E+03 7.25033E+03
 -1       182-1.91996E+02-1.48870E+02 4.78468E+04 9.40582E+01-3.01542E+03 1.21681E+04
 -1       183-5.08320E+02 2.29533E+02 3.67425E+04-2.84489E+02-2.67233E+03 9.53680E+03
 -1       184 5.55726E+04 9.59110E+02 5.85298E+05-3.30796E+03-9.16112E+03 4.67738E+03
 -1       185 1.13598E+05 6.10691E+02 7.13875E+05-7.04961E+03-1.29674E+04-7.97343E+03
 -1       186-8.31837E+02-2.28917E+02 1.16639E+05-2.21771E+02-4.01530E+03 1.00487E+04
 -1       187 4.51441E+01-1.14752E+03 8.23378E+04 1.37359E+02-3.47080E+03 1.68690E+04
 -1       188-6.11649E+02 9.17210E+01 8.05476E+04-8.59699E+01-2.89612E+03 1.19215E+04
 -1       189 8.41141E+04 6.42128E+02 7.71515E+05 2.85247E+03-1.36869E+04 2.27884E+04
 -1       190-2.70206E+02 3.05425E+02 2.21046E+05-2.86991E+02-4.95378E+03 2.06878E+04
 -1       191 2.37685E+02-1.62087E+03 2.88594E+05-2.21647E+01-5.89532E+03 2.08974E+04
 -1       192-1.76404E+01 2.01889E+03 1.93089E+05-4.29410E+02-5.51080E+03 2.68585E+04
 -1       193-9.52051E+02 8.31459E+01 2.72842E+05 4.00419E+02-5.73556E+03 1.24463E+04
 -1       194-6.01553E+02 2.16487E+02 2.22183E+05-5.45207E+02-5.84690E+03 1.35021E+04
 -1       195-3.49524E+02-8.87980E+02 1.60307E+05-1.06160E+02-5.09003E+03 2.38618E+04
 -1       196-4.39513E+02-9.65434E+02 1.69659E+05 2.79027E+02-4.70868E+03 1.74056E+04
 -1       197-3.34488E+02 6.15750E+02 1.21513E+05-3.18201E+02-3.79577E+03 1.58184E+04
 -1       198-1.37980E+02-1.01609E+03 1.11081E+05-5.62033E+01-4.34031E+03 2.08574E+04
 -1       199-1.23178E+03 7.39253E+01 1.54456E+05 1.77458E+02-4.21945E+03 9.49170E+03
 -1       200 3.99520E+04 1.42925E+03 4.21337E+05-3.47762E+03-4.25434E+03-3.01263E+03
 -1       201 1.51204E+04 3.50981E+02 2.65699E+05-2.78320E+03-4.76221E+03 1.56780E+04
 -1       202 2.80068E+04 1.28204E+03 4.62926E+05-1.95657E+03-7.72178E+03 1.34014E+04
 -1       203 1.79215E+03-2.04119E+02 3.60108E+05-1.83717E+02-6.53764E+03 1.56221E+04
 -1       204 5.70286E+02 8.51748E+02 2.60394E+05 2.04706E+02-5.40230E+03 2.79560E+04
 -1       205 2.40633E+04-2.20979E+03 1.76631E+05-1.09495E+03-8.84507E+02-4.26080E+03
 -1       206 3.55769E+03-5.00525E+02 4.15820E+05-3.89031E+02-7.42872E+03 1.82323E+04
 -1       207 3.45047E+03-2.82480E+03 3.31280E+05-7.03318E+02-7.44392E+03 2.72618E+04
 -1       208 1.72678E+03 4.87443E+02 3.39895E+05-2.91444E+02-6.13952E+03 2.56517E+04
 -1       209 1.19368E+04 5.29564E+02 5.06917E+05-3.40256E+02-7.28461E+03 1.76948E+04
 -1       210 9.82647E+03 8.14244E+02 3.90684E+05-9.85669E+02-7.81886E+03 2.50908E+04
 -1       211 6.72080E+03-6.40898E+02 4.18566E+05 2.88667E+02-5.14850E+03 2.32982E+04
 -1       212 2.94405E+02-6.16163E+02 1.94699E+04 2.22041E+01-1.74849E+03 1.00036E+04
 -1       213 4.74148E+02-5.50946E+01 2.72978E+04 2.39285E+02-2.09710E+03 1.22489E+04
 -1       214 1.94329E+04 6.41985E+02 4.97866E+05-1.12705E+03-9.18743E+03 1.95992E+04
 -1       215-5.78133E+02-2.21114E+02 1.47103E+04-2.54814E+02-1.38208E+03-3.53344E+03
 -1       216-7.80034E+02-1.18629E+02 2.33235E+04-1.22339E+02-1.87684E+03-4.14225E+03
 -1       217 5.85678E+04-3.54250E+03 3.24116E+05-6.42173E+03 3.67690E+03-3.49679E+04
 -1       218 7.68745E+04-2.38408E+03 5.27914E+05-7.63297E+03-3.34631E+03-2.28358E+04
 -1       219 2.18738E+02-1.10510E+02 5.03237E+04-6.27759E+01-2.31902E+03 1.54337E+04
 -1       220-1.15089E+03 8.63360E+02 3.11706E+04-2.78825E+02-2.33548E+03 1.57560E+04
 -1       221-2.96384E+02-3.55083E+02 1.73047E+04-2.34402E+01-1.73098E+03 1.19419E+04
 -1       222-2.43205E+02 2.83056E+02 7.70193E+04-2.68259E+02-2.93503E+03 1.93698E+04
 -1       223-1.28598E+03 6.30507E+02 4.58714E+04-2.97521E+02-2.69727E+03 1.83615E+04
 -1       224 2.96243E+02 4.34043E+02 1.09597E+05-2.74921E+02-3.38330E+03 2.27227E+04
 -1       225 6.35194E+00-2.40410E+02 2.33610E+04-4.59803E+02-2.50851E+03 1.26850E+04
 -1       226-8.67107E+02 1.06761E+03 6.53800E+04-5.04869E+02-3.48492E+03 2.11042E+04
 -1       227 2.53131E+02 3.29191E+02 1.45857E+05-3.22597E+02-4.22950E+03 2.56423E+04
 -1       228-7.87864E+02 2.25500E+02 1.35503E+04-6.99153E+01-1.16303E+03 4.78958E+03
 -1       229-9.27400E+02-2.15800E+02 1.42665E+04-2.22926E+02-1.12663E+03 2.23256E+03
 -1       230 9.96142E+02-2.35329E+03 3.44289E+05-4.17458E+03-7.20372E+03-6.68310E+03
 -1       231 1.29068E+03 3.87961E+03 3.88274E+05-1.73492E+03-6.39952E+03-1.28596E+04
 -1       232-9.78967E+02-3.25896E+01 4.45487E+04 4.79643E+01-1.85205E+03 5.20158E+03
 -1       233-5.94601E+02-4.33356E+01 2.36044E+04-1.59369E+02-2.06439E+03 6.96460E+03
 -1       234-8.16633E+02 2.75557E+02 4.88876E+04-6.94856E+01-2.07764E+03-3.37013E+03
 -1       235-7.87665E+02-5.28244E+02 3.13039E+04 3.75199E+01-2.30735E+03-4.90959E+03
 -1       236 6.27426E+02-7.59096E+01 8.85525E+04-9.02307E+01-5.37558E+03 2.25825E+04
 -1       237 8.24021E+02 1.92038E+02 1.89174E+05-2.86336E+02-4.51652E+03 2.73045E+04
 -1       238-1.85755E+02 7.72664E+01 5.48298E+03-2.52370E+01-7.69388E+02 5.15339E+03
 -1       239 2.00317E+02 3.69988E+02 1.07383E+03-7.31251E+01-1.04299E+03 5.71348E+03
 -1       240-4.80157E+01-7.15522E+02 9.92227E+02-1.91800E+02-8.35001E+02 4.30531E+03
 -1       241-3.31944E+02 2.19641E+02-2.57770E+03 5.68888E+01-4.29068E+02 2.33867E+03
 -1       242 8.74240E+02-1.10380E+03 1.14670E+05 6.10635E+02-5.58499E+03 2.55128E+04
 -1       243 2.15268E+03 3.18989E+03 2.34567E+05-2.42323E+02-4.21821E+03 2.79840E+04
 -1       244 1.41517E+03 1.13015E+03 1.42590E+05 2.53869E+02-6.41184E+03 2.53688E+04
 -1       245 5.38810E+03 1.67320E+03 2.89630E+05 2.51687E+02-7.66500E+03 2.89922E+04
 -1       246 5.47189E+03-1.52171E+03 1.79416E+05-1.17275E+02-6.99522E+03 2.19579E+04
 -1       247 1.49562E+04-3.58046E+01 3.54744E+05 1.77021E+02-4.98556E+03 2.17747E+04
 -1       248-1.60119E+02 2.71821E+02 8.98004E+03 4.21038E+01-1.93389E+03 8.95277E+03
 -1       249 1.30659E+02-1.25923E+01 3.52124E+03-1.90373E+02-1.56220E+03 6.66976E+03
 -1       250-2.40047E+02-7.19158E+01 1.44296E+03 1.12546E+02-5.33414E+02 3.03737E+03
 -1       251-1.09198E+03-5.44267E-01 2.24391E+03 2.32374E+01-3.94072E+02 1.13133E+03
 -1       252-8.54404E+02 1.46223E+02 6.10461E+03-1.38840E+01-9.92641E+02 2.77968E+03
 -1       253 1.60561E+05-2.62694E+04 8.55289E+05 1.83687E+04-1.40237E+04 4.71035E+04
 -1       254 1.19043E+05-3.65750E+03 6.75648E+05 4.71964E+04 5.25638E+03 8.71565E+04
 -1       255-5.88461E+02 2.80087E+01 3.88558E+02-6.95152E+01-3.51607E+02-7.12539E+02
 -1       256-1.01925E+03 4.92299E+00 3.06450E+03-2.02802E+01-5.55283E+02-3.45207E+02
 -1       257 1.09550E+02-1.46687E+02 1.11702E+04-6.70366E+01-1.35059E+03 7.41520E+03
 -1       258-1.17329E+03 1.35910E+02 8.60708E+03-5.52879E+01-8.22968E+02 7.34244E+02
 -1       259-8.80872E+02 6.59972E+00 8.37213E+03-5.11086E+01-8.88971E+02-7.19162E+02
 -1       260-5.84921E+02-1.40017E+02 4.75423E+03-5.62104E+01-8.20212E+02-1.73086E+03
 -1       261-4.88164E+02-1.02339E+02 1.70373E+03-5.48880E+01-5.65770E+02-1.21870E+03
 -1       262-1.66453E+02 1.27366E+03 2.74675E+05-3.99859E+02-8.52909E+03-1.50483E+04
 -1       263 1.60560E+03 1.76613E+03 3.86978E+05 1.54566E+03-5.81190E+03-8.96451E+03
 -1       264 2.77795E+03 2.32153E+02 4.06760E+05 5.62890E+02-5.83058E+03-9.25386E+03
 -1       265 5.42532E+03-8.06564E+01 4.98654E+05 6.13131E+01-7.46008E+03-8.01460E+02
 -1       266-5.99165E+02 4.61081E+02 4.85355E+04-4.12025E+02-1.71195E+03-6.06404E+03
 -1       267-1.13513E+03 4.93172E+02 7.77316E+04 4.24515E+01-3.29107E+03-7.55778E+03
 -1       268-5.21884E+02 1.88695E+02 7.29142E+04 1.73792E+02-2.78865E+03-5.39319E+03
 -1       269-5.81996E+02-1.59629E+02 9.96996E+04-1.09844E+02-3.64546E+03-2.13260E+03
 -1       270 8.41494E+02-2.05896E+02 1.08465E+05-6.32129E+02-3.67498E+03-8.43502E+03
 -1       271-1.43814E+03 7.82586E+02 1.54477E+05 1.00424E+02-4.51916E+03-1.05688E+04
 -1       272-4.20092E+02 6.70583E+02 1.52936E+05 1.68846E+02-4.16706E+03-7.57351E+03
 -1       273-7.40690E+02-8.76436E+01 2.00606E+05 2.32813E+02-5.07122E+03-3.64382E+03
 -1       274 1.25205E+03-1.75883E+02 1.86638E+05-1.05749E+03-4.63348E+03-1.07953E+04
 -1       275-7.89208E+02 3.48335E+02 2.52631E+05-4.37314E+02-6.91158E+03-1.30998E+04
 -1       276 1.58668E+02 6.53414E+02 2.63747E+05 5.01486E+02-5.96212E+03-1.00483E+04
 -1       277 4.29529E+02-2.03349E+02 3.33096E+05-4.02998E+02-5.61938E+03-2.96870E+03
 -1       278 5.64992E+04 3.04792E+03 7.31415E+05 9.23118E+03-3.17835E+03 4.22391E+04
 -1       279 3.98067E+04 4.97244E+03 5.83493E+05 8.63517E+03 2.62453E+03 4.71031E+04
 -1       280 9.18442E+04 2.83715E+03 7.18358E+05 1.45313E+04-1.92255E+03 6.18813E+04
 -1       281 3.46391E+04 4.06580E+03 5.42259E+05 7.34427E+03 7.19327E+03 7.35170E+04
 -1       282 1.12855E+05 3.15370E+03 8.19196E+05 7.14951E+03-1.44777E+04 3.91458E+04
 -1       283 1.16695E+04 1.14097E+04 2.65656E+05 3.36755E+03-1.83077E+04-1.04853E+04
 -1       284-4.39070E+02 2.55639E+02 5.41119E+03-6.25081E+00-1.21356E+03-2.22679E+03
 -1       285 2.47724E+04 2.82950E+03 5.43863E+05 2.79059E+03-4.08680E+03 2.67570E+04
 -1       286-8.84528E+02 2.89442E+02 1.02323E+05-4.36908E+02-3.80343E+03-1.01355E+04
 -1       287 4.01812E+02 1.23193E+02 7.85627E+04-6.39537E+02-3.66083E+03-8.34041E+03
 -1       288-1.33160E+03 3.69122E+02 1.84085E+05-7.40798E+02-5.12665E+03-1.36956E+04
 -1       289 1.17056E+03 2.14654E+02 1.48505E+05-1.09101E+03-4.90496E+03-1.13233E+04
 -1       290-3.52300E+03 4.10858E+02 2.88084E+05-1.21671E+03-6.82610E+03-1.38133E+04
 -1       291 3.60665E+03 2.87066E+03 2.38307E+05-8.00148E+02-4.98084E+03-1.38687E+04
 -1       292 1.93432E+04 1.08541E+02 6.10912E+05 1.78609E+03-7.02027E+03 1.04995E+04
 -1       293 6.94334E+03 8.53024E+02 4.96381E+05 2.04956E+03-3.99357E+03-1.10012E+03
 -1       294 3.66903E+03-3.26904E+02 3.82610E+05-8.22646E+02-3.31286E+03-4.53280E+02
 -1       295 1.59818E+04 1.61064E+02 6.02581E+05 1.26239E+03-8.56183E+03 5.20278E+03
 -1       296-8.62087E+02-1.50220E+02 6.57536E+04 1.72152E+02-2.54801E+03-3.68737E+03
 -1       297-9.18106E+02 4.00771E+02 1.14826E+05-8.88811E+01-3.52541E+03-6.05399E+03
 -1       298 9.94433E+04 2.05886E+04 3.02581E+05-2.86310E+04 8.33785E+03-3.69257E+04
 -1       299-8.71416E+02-3.58046E+02 1.45441E+05 3.77434E+02-4.04681E+03-5.29958E+03
 -1       300-5.79016E-01 1.90837E+02-1.42505E+03-1.16230E+02-3.09875E+02 2.64982E+03
 -1       301-8.78509E+02 7.20640E+02 2.14799E+05-7.18712E+01-4.78921E+03-8.22915E+03
 -1       302-4.65827E+02-6.18080E+02 2.59455E+05 7.23019E+02-5.44950E+03-6.86464E+03
 -1       303 8.64852E+01 9.02923E+02 3.46497E+05 5.04990E+02-6.13463E+03-9.22595E+03
 -1       304-1.07080E+03-2.27172E+02 4.69038E+04-9.80249E+01-2.15934E+03 8.12464E+02
 -1       305 1.48691E+03-5.38889E+02 4.05795E+05 9.96875E+02-7.50768E+03-6.04215E+03
 -1       306 3.95871E+04-4.58864E+02 6.80699E+05 5.56171E+03-6.92251E+03 2.19272E+04
 -1       307-1.24139E+03 3.89561E+00 8.32057E+04 8.12584E+01-2.93739E+03 8.39689E+02
 -1       308-1.13115E+03-7.04534E+01 6.36505E+04-2.54007E+02-2.76890E+03 1.64907E+03
 -1       309 1.16423E+05-1.37220E+03 5.43457E+05-1.35718E+04-6.39634E+03-4.98543E+04
 -1       310 1.76276E+05-1.75320E+04 7.24536E+05-2.20958E+04-5.46847E+03-3.34849E+04
 -1       311 7.84238E+03-1.12657E+03 5.44071E+05 1.48661E+03-7.87194E+03-8.16970E+02
 -1       312 1.95497E+05-1.85972E+04 9.28804E+05 1.05436E+03-3.02092E+04 2.02748E+04
 -1       313-1.03849E+03-2.45209E+01 1.22028E+05-1.03631E+02-3.42003E+03 1.71090E+03
 -1       314-1.15578E+03 2.94234E+02 9.81292E+04-1.05806E+02-3.42045E+03 5.58800E+03
 -1       315-1.11931E+03-4.50127E+01 1.74148E+05 9.24485E+01-3.87338E+03 1.42440E+02
 -1       316-1.19369E+03-3.08463E+02 1.47006E+05-2.47700E+02-3.48897E+03 1.58665E+03
 -1       317-7.46102E+02-1.29191E+02 2.32153E+05 3.96898E+01-4.78003E+03 2.42368E+03
 -1       318-8.54479E+02-3.67275E+02 1.97664E+05 1.09269E+02-5.10036E+03 7.07819E+03
 -1       319 1.98579E+05-5.16129E+03 8.62936E+05-1.53232E+04-2.55869E+04-8.37690E+03
 -1       320-7.55282E+02 8.86766E+01 3.01625E+05 2.17640E+02-5.46723E+03-8.67242E+01
 -1       321-9.73059E+02-4.79006E+02 2.65913E+05-3.07393E+02-4.71805E+03 2.12987E+03
 -1       322 5.24230E+02-1.84507E+02 3.79259E+05 2.00359E+02-5.95880E+03 2.88938E+03
 -1       323-3.66018E+02-1.39354E+02 3.33946E+05 1.45430E+02-5.57148E+03 9.70488E+03
 -1       324-5.58784E+02-1.02711E+01 7.76637E+03-1.69412E+02-1.28938E+03-2.71245E+03
 -1       325 2.73893E+03 8.24876E+02 4.65168E+05 3.55334E+02-7.60485E+03 2.41705E+03
 -1       326 1.81163E+03-1.23286E+02 4.18010E+05-1.92539E+02-6.41265E+03 4.74962E+03
 -1       327 1.03736E+04 6.49429E+02 4.89873E+05 1.54870E+02-2.41436E+03 1.05663E+04
 -1       328 1.06569E+04-1.14947E+02 5.50058E+05 5.35697E+02-6.42769E+03 8.67062E+03
 -1       329 6.56803E+03-8.42446E+01 4.94405E+05 2.66281E+01-7.61550E+03 1.31055E+04
 -1       330 1.79996E+04-9.75633E+02 5.90922E+05-1.29509E+02-8.29496E+03 1.30276E+04
 -1       331 1.42878E+05-1.05481E+02 8.23217E+05-1.37768E+03-2.03660E+04 1.46041E+04
 -1       332 1.32768E+05 1.33172E+05 2.13128E+05 1.65099E+04 6.89397E+04 6.91482E+04
 -1       333-1.23854E+02-3.07950E+00-5.24843E+01-3.08948E+01-1.99332E+02-2.18457E+02
 -1       334 7.35373E+02 2.49030E+02-7.36016E+02-2.53446E+02-1.28823E+02 1.62317E+03
 -1       335-1.72111E+02-6.98978E+01-1.26964E+03-8.45996E+01-1.40733E+02 1.26153E+03
 -1       336-1.64412E+02-2.97712E+02-1.65427E+03 2.94008E+01-5.44365E+02 1.67820E+03
 -1       337 4.41575E+04 4.62931E+03 8.48944E+04-1.76949E+04 9.40570E+03-3.49440E+04
 -1       338 1.22007E+04-2.24749E+04 4.74240E+04-8.98760E+03 1.80886E+04-1.26535E+04
 -1       339 1.08474E+05 8.09874E+04 2.69412E+05-2.03052E+04 1.10738E+04-1.98182E+04
 -1       340 5.78577E+04 4.58535E+04 2.66002E+05 1.17835E+03 2.67496E+04 4.69053E+04
 -1       341 2.10990E+04 1.67023E+04 1.47724E+05-5.40709E+03 2.56254E+04 3.46058E+04
 -1       342 5.06523E+04 3.84814E+04 2.63091E+05 1.81948E+04 3.04493E+04 6.22276E+04
 -1       343 1.23255E+05 7.46475E+04 5.59083E+05 3.30609E+04 1.26264E+04 8.38054E+04
 -1       344 8.45320E+04 2.42979E+03 6.15864E+05 2.41753E+04 7.89244E+03 1.03373E+05
 -1       345 6.30440E+04 2.28784E+04 2.64252E+05 6.68695E+03 1.87203E+04 3.25604E+04
 -1       346 2.08460E+04 2.17045E+04 2.58191E+05 7.93299E+03 1.77425E+04 1.87836E+04
 -1       347 2.57585E+03-1.59525E+04 4.76982E+05 3.39855E+03 5.77427E+03 6.45395E+04
 -1       348 3.93737E+04 3.08677E+04 3.12468E+05 1.08764E+04-4.72255E+03 1.57054E+04
 -1       349 2.07167E+04 3.63988E+04 2.37243E+05-2.45910E+02 2.13034E+03 1.01572E+04
 -1       350-1.44474E+04-2.46920E+04 4.85278E+05 8.98837E+03-3.68365E+03 4.28540E+04
 -1       351 4.17274E+04 2.45115E+04 2.85304E+05 1.20098E+04-8.41949E+03 1.27590E+04
 -1       352 1.17439E+04 2.40021E+04 1.81745E+05-4.23129E+03 9.81106E+02-1.60869E+03
 -1       353-4.87959E+03-2.03058E+04 4.65055E+05 1.01885E+03-5.26576E+03 2.31601E+04
 -1       354 3.16804E+04 3.07830E+04 2.00488E+05 7.75707E+03-1.12906E+04-2.56165E+03
 -1       355 3.10323E+04 2.40138E+04 2.07692E+05 9.44942E+03-5.42568E+03 6.28795E+03
 -1       356-1.07864E+04-1.18920E+04 3.94151E+05-5.29618E+02-5.70735E+03 5.10971E+03
 -1       357 2.95097E+04 2.87040E+04 1.68559E+05 3.37496E+03 8.95021E+03-8.24105E+03
 -1       358 8.66360E+03 1.76749E+04 8.65165E+04-1.10861E+04-1.10745E+04-1.65452E+03
 -1       359-1.00163E+04-1.52402E+04 3.18519E+05-4.01601E+03-3.38705E+03-6.80896E+03
 -1       360 1.63065E+04 8.12219E+03 1.88940E+05 8.37917E+02 2.87912E+03-8.69727E+03
 -1       361 4.97331E+03 1.75418E+04 1.34722E+05-3.40202E+03-3.62920E+03-5.33318E+03
 -1       362-1.72619E+04-1.34844E+04 3.22329E+05-2.04725E+03-8.98201E+03-2.00792E+04
 -1       363 2.62502E+04 2.67986E+04 1.17128E+05 3.60203E+03-7.48277E+03-7.97750E+03
 -1       364-3.54622E+03 4.39950E+03 6.49129E+04-1.91199E+03-1.40811E+04 5.63037E+02
 -1       365 2.72888E+03-2.22131E+03 1.79532E+05 6.88546E+02-1.50515E+04-8.41490E+02
 -1       366-1.15642E+04-6.23185E+03 3.67753E+05 4.22898E+03-8.68493E+03-1.53182E+04
 -1       367 9.56151E+03 4.98945E+03 3.23198E+05 4.46681E+03-1.23385E+04-8.29850E+03
 -1       368 2.30811E+04 1.84559E+04 1.42820E+05 4.10714E+03-3.55353E+02-1.42618E+04
 -1       369 4.02223E+03 1.46408E+04 8.52319E+04-3.34551E+03-6.57635E+03-6.82096E+03
 -1       370-1.43067E+04-1.47469E+04 2.25002E+05-1.83929E+03-1.14410E+04-1.79738E+04
 -1       371 1.74367E+04 1.82675E+04 1.40091E+05 3.42072E+02-3.04593E+03-8.22480E+03
 -1       372 1.57296E+03 1.33856E+04 1.00715E+05-2.60284E+03-8.76622E+03-7.86709E+03
 -1       373-1.37119E+04-9.14203E+03 2.50024E+05-1.41373E+03-8.90446E+03-2.14360E+04
 -1       374 2.02000E+04 1.33793E+04 1.22714E+05 2.84459E+03-4.19845E+02-5.32332E+03
 -1       375 5.60862E+03 1.38479E+04 7.59732E+04-3.20418E+03-8.32663E+03-3.02118E+02
 -1       376-1.64638E+04-1.10158E+04 2.23137E+05-4.17608E+02-6.76958E+03-1.92648E+04
 -1       377 2.27847E+03 1.23077E+04 1.02673E+05-2.08615E+02-8.52416E+03-6.26021E+03
 -1       378 1.63185E+04 1.55113E+04 1.34255E+05 3.11308E+03-4.75818E+03-1.05609E+04
 -1       379-1.08027E+04-8.57753E+03 2.18631E+05-2.74759E+02-6.83921E+03-1.91909E+04
 -1       380 1.53246E+04 1.23108E+04 9.15350E+04 5.16486E+02-3.24552E+03-5.25021E+03
 -1       381 2.28875E+03 8.54074E+03 5.58339E+04-2.41728E+03-9.45904E+03-5.33860E+03
 -1       382-1.28036E+04-1.08312E+04 1.86627E+05-5.69269E+02-4.54982E+03-1.53388E+04
 -1       383 1.30045E+04 1.05741E+04 9.27029E+04 1.24734E+03-3.62548E+03-7.95612E+03
 -1       384 2.61003E+03 9.34938E+03 6.35657E+04-2.03139E+03-7.65929E+03-5.10445E+03
 -1       385-9.66020E+03-8.84111E+03 1.60077E+05-4.53364E+02-7.00085E+03-1.65563E+04
 -1       386 1.22159E+04 9.74494E+03 7.34507E+04 5.20977E+02-3.45479E+03-4.57538E+03
 -1       387 1.36081E+03 6.77318E+03 4.47140E+04-2.08547E+03-7.73221E+03-3.13310E+03
 -1       388-8.97849E+03-8.36018E+03 1.38286E+05-5.41426E+02-4.50663E+03-1.42624E+04
 -1       389 1.90156E+03 8.40383E+03 5.88340E+04-8.99285E+02-6.62464E+03-4.86749E+03
 -1       390 9.67577E+03 9.22092E+03 7.96263E+04 1.35096E+03-3.71926E+03-7.37909E+03
 -1       391-7.32611E+03-6.67158E+03 1.33662E+05-2.99916E+02-5.55125E+03-1.47764E+04
 -1       392 8.87434E+03 6.93853E+03 5.30751E+04 2.40531E+02-3.08013E+03-3.90763E+03
 -1       393 1.05725E+03 4.90489E+03 3.21517E+04-1.38216E+03-6.68478E+03-3.21161E+03
 -1       394-7.35862E+03-6.25512E+03 1.10107E+05-1.20232E+02-3.43053E+03-1.11227E+04
 -1       395 6.90454E+03 5.55082E+03 5.07551E+04 5.31848E+02-3.20767E+03-5.87288E+03
 -1       396 1.23305E+03 5.24693E+03 3.50273E+04-1.16595E+03-5.52132E+03-3.95665E+03
 -1       397-5.46001E+03-5.21586E+03 9.05263E+04-1.78335E+02-4.96224E+03-1.16903E+04
 -1       398 6.10743E+03 4.94930E+03 3.81148E+04 1.59173E+02-2.96445E+03-3.63397E+03
 -1       399 4.79200E+02 3.60020E+03 2.30163E+04-1.08956E+03-5.32350E+03-2.65235E+03
 -1       400-4.96106E+03-4.59606E+03 7.48583E+04-2.14181E+02-3.45908E+03-1.00835E+04
 -1       401 6.12097E+02 4.26485E+03 2.91095E+04-4.29986E+02-4.46189E+03-3.76140E+03
 -1       402 4.38651E+03 4.49792E+03 3.89361E+04 5.59677E+02-3.00977E+03-5.05490E+03
 -1       403-3.91793E+03-3.52976E+03 6.87627E+04-1.34903E+02-3.75323E+03-1.00118E+04
 -1       404-3.67897E+02 3.71206E+02 1.53600E+04-4.25802E+02-2.23753E+03-2.41912E+03
 -1       405 4.43480E+02 2.91159E+03 1.43709E+04-5.34041E+02-3.88628E+03-2.23465E+03
 -1       406-3.80889E+03-2.98017E+03 5.40325E+04 1.06007E+01-2.36934E+03-7.56300E+03
 -1       407 1.52472E+03 2.65094E+02 1.63169E+04 6.55501E+02-4.79310E+03-1.38468E+03
 -1       408 1.54800E+03 2.00055E+03 7.77368E+03-8.68258E+02-3.26533E+03-2.39370E+03
 -1       409 1.70489E+03-5.84848E+02 2.27991E+04 2.06383E+02-3.44267E+03-3.21142E+03
 -1       410-1.06117E+03-2.58511E+02 3.69933E+04-7.72685E+01-3.34278E+03-5.50645E+03
 -1       411-9.08538E+02-4.84216E+02 4.48309E+04 3.90300E+02-2.23471E+03-6.74938E+03
 -1       412-6.84373E+02 1.94804E+02 1.10286E+04-8.14679E+02-1.36331E+03-1.95805E+03
 -1       413 7.67376E+02 1.09197E+03 9.68504E+03-1.49938E+02-1.76522E+03-3.13239E+03
 -1       414 1.64772E+03 7.98114E+02 1.42148E+04 6.35551E+02-2.39872E+03-2.79531E+03
 -1       415-5.42251E+02 4.33750E+01 1.18995E+04-1.89662E+02-1.99348E+03-3.01623E+03
 -1       416-1.77988E+02 4.71240E+02 3.16164E+04 3.52359E+01-1.77330E+03-5.92660E+03
 -1       417-1.31572E+03-1.19679E+03 2.54834E+04-2.52532E+02-2.06388E+03-4.70232E+03
 -1       418 4.86961E+02 8.07782E+02 7.08320E+03 2.24955E+02-2.23860E+03-2.84417E+03
 -1       419 5.99928E+02 8.23337E+02 5.38857E+03-2.78858E+02-1.44214E+03-1.97910E+03
 -1       420-2.07218E+03-8.86572E+02 1.64296E+04 2.77123E+01-1.59948E+03-3.51165E+03
 -1       421 3.60806E+02 3.76201E+02 3.37010E+03-1.34538E+02-1.02546E+03-1.40839E+03
 -1       422 3.63145E+01 5.03566E+02 1.50495E+03-2.29540E+02-1.49557E+03-1.15537E+03
 -1       423-1.30640E+03-7.33005E+02 8.95720E+03-4.37922E+02-1.38830E+03-2.94971E+03
 -1       424 3.57286E+01 4.76994E+01 2.04413E+03-5.10361E+01-8.93062E+02-1.43840E+03
 -1       425-3.08695E+02 9.55339E+00 1.15327E+03-3.06107E+01-1.20517E+03-1.09680E+03
 -1       426-4.27228E+02 6.83835E+01 6.11308E+03-6.01359E+01-1.27992E+03-2.53703E+03
 -1       427-1.99965E+02-1.69647E+01 5.63808E+02-9.66159E+01-4.95098E+02-7.55932E+02
 -1       428-2.77160E+02-1.17951E+02 2.42229E+02-3.14983E+01-6.77549E+02-8.04997E+02
 -1       429-5.94650E+01 5.29805E+00 1.72957E+03-4.50908E+01-8.21669E+02-1.20361E+03
 -1       430-8.83080E+02-3.65335E+02 2.38907E+03-2.34081E+01-6.36438E+02-1.55138E+03
 -1       431-4.70111E+02 1.65908E+01 5.06794E+03 1.48695E+01-1.01843E+03-1.95432E+03
 -1       432-2.74146E+02 2.38484E+01 5.29828E+01-4.31614E+01-3.82703E+02-5.09859E+02
 -1       433-4.89927E+02-1.49790E+01 1.40762E+02-4.49090E+01-1.90376E+02-4.70580E+02
 -1       434-4.02636E+02 4.66555E+00 1.07749E+03-9.04879E+01-4.56857E+02-9.84537E+02
 -1       435-9.03151E+02 9.15918E+01 3.66168E+02-4.36010E+01-9.89907E+01-3.01859E+02
 -1       436-1.34232E+03-3.71770E+01 9.14709E+02-1.29770E+02-2.26371E+02 1.05296E+03
 -1       437-1.19143E+03 9.42350E+01 1.07915E+03 2.28446E+01-1.72172E+01 4.23050E+02
 -1       438-1.11193E+03-1.84429E+02 1.18694E+03-1.16739E+02-3.29211E+02-1.86797E+02
 -1       439-1.09698E+03 5.17185E+01 2.61226E+03 6.03237E+01-3.23807E+02 4.06220E+02
 -1       440-9.07647E+02-1.36865E+01 1.58933E+03-1.77811E+02-4.22502E+02-6.45505E+02
 -1       441-1.00205E+03 3.54168E+01 6.23420E+02-4.32850E+01-1.07359E+02 1.79789E+03
 -1       442-2.11145E+02-4.50567E+01 2.01822E+02 4.45705E+01-4.19199E+02 2.28260E+03
 -1       443-7.92357E+02 2.44552E+01 2.04967E+03 8.56055E+01-5.43056E+02 2.16754E+03
 -1       444 1.96875E+02 4.13779E+01-5.35383E+02-2.99763E+02-4.58082E+01 2.16922E+03
 -1       445 1.89074E+01 4.09858E+01-6.47737E+01 5.37751E+01-3.99241E+02 2.95969E+03
 -1       446 4.44278E+04 7.04001E+03 1.25732E+05-5.54094E+03-4.64333E+03-2.08424E+04
 -1       447 5.10751E+04 4.11403E+03 1.19642E+05 6.83294E+02 7.10707E+02-3.17993E+04
 -1       448 8.90823E+04 1.55465E+04 3.37049E+05-1.46634E+04 1.93187E+04-5.40499E+04
 -1       449 1.47083E+04-1.29255E+02 3.58318E+04 1.11392E+03 9.97556E+02 3.10707E+02
 -1       450 2.38787E+04 4.75003E+03 3.73989E+04-2.65412E+03-1.86399E+03-6.26376E+03
 -1       451 3.32648E+04-6.23997E+03 2.42297E+05-3.19069E+03 6.38630E+03-1.51020E+04
 -1       452 3.72287E+03 1.14946E+03 4.73837E+04 1.50660E+03-2.39307E+03 1.57639E+04
 -1       453 9.35274E+03 5.44278E+03 5.60393E+04-4.37661E+02-8.20680E+02 1.28387E+04
 -1       454 1.99601E+04 4.34728E+03 2.31903E+05-1.05715E+03-5.26326E+03 8.85322E+03
 -1       455 6.42438E+03 2.99969E+03 8.17972E+04-1.61117E+03-1.44933E+03 1.16179E+04
 -1       456 8.53924E+03 2.00169E+01 2.24661E+05-2.77140E+03-5.63586E+03 1.71932E+04
 -1       457 1.41113E+03-4.06978E+03 3.18283E+04 1.48630E+03-3.31599E+03 1.55453E+04
 -1       458 3.43066E+03-1.71574E+03 3.26190E+04-2.18271E+03-3.66586E+03 1.55356E+04
 -1       459 1.68094E+03 2.75943E+03 1.59373E+05-9.11149E+02-5.26902E+03 2.38747E+04
 -1       460 2.45207E+03 1.39233E+03 2.50370E+04 1.63716E+03 3.71407E+02 1.65154E+04
 -1       461 2.70709E+03 2.04156E+02 2.66216E+04-1.31138E+03-3.33109E+03 1.54495E+04
 -1       462-3.26695E+02-1.23500E+03 1.24267E+05-1.57413E+03-8.46518E+03 2.53663E+04
 -1       463 4.83578E+02-9.77597E+02 1.73284E+04 1.88247E+03-3.33221E+02 1.35568E+04
 -1       464 1.68407E+03-1.41690E+03 1.73745E+04-1.14740E+03-4.52634E+03 1.41536E+04
 -1       465 1.80200E+02-7.83359E+02 9.76641E+04-2.34053E+03-7.97247E+03 2.39727E+04
 -1       466-1.08108E+02-1.15906E+03 1.35260E+04 4.36264E+02-1.93628E+03 1.23820E+04
 -1       467 7.91258E+02-1.65357E+03 1.32680E+04-1.20936E+03-2.47364E+03 1.22852E+04
 -1       468-1.18576E+03 1.03858E+03 7.55857E+04 2.90303E+02-3.19383E+03 2.11752E+04
 -1       469-4.96756E+02-1.11366E+03 8.79989E+03 4.83777E+02-1.16660E+03 1.06672E+04
 -1       470-1.15707E+03-1.90875E+03 6.87602E+03-1.01143E+03-1.85954E+03 1.09643E+04
 -1       471-8.02325E+02 2.02672E+03 5.64229E+04-2.48749E+02-4.14409E+03 1.93020E+04
 -1       472-8.55591E+01-3.59324E+02 5.23635E+03 7.25350E+02-6.42919E+02 9.00787E+03
 -1       473-1.07037E+03-1.38441E+03 3.75839E+03-6.72981E+02-1.55862E+03 9.20488E+03
 -1       474-1.10245E+03 1.72136E+03 3.94524E+04-4.07740E+01-3.48609E+03 1.65063E+04
 -1       475 7.66919E+01-3.31671E+02 4.51415E+02 2.89961E+01-7.80418E+02 6.55861E+03
 -1       476-6.45662E+02-4.58160E+02-1.63334E+03-1.27368E+02-9.14629E+02 7.48169E+03
 -1       477-1.58549E+03 5.38750E+02 2.30701E+04-1.11740E+03-3.00626E+03 1.36949E+04
 -1       478-1.06083E+02-1.70240E+03 3.89836E+02 4.34698E+01-7.80103E+02 5.04277E+03
 -1       479-5.06655E+02-7.49256E+02-2.34416E+03-3.17222E+02-9.26379E+02 5.82975E+03
 -1       480 1.06187E+03 7.20838E+02 2.21799E+04 2.01326E+02-1.41275E+03 1.24152E+04
 -1       481-1.83190E+02-3.34018E+02 3.97421E+03 2.16281E+02-1.56109E+03 7.99951E+03
 -1       482-1.36824E+02 7.02736E+02 1.53773E+04-6.84243E+02-2.36915E+03 1.08169E+04
 -1       483-4.49434E+02-2.50387E+02-1.69200E+03 4.14399E+01-7.17690E+02 3.85902E+03
 -1       484-7.28924E+01 1.16869E+03-2.60307E+03-1.44671E+02-8.02597E+02 4.16213E+03
 -1       485-1.31394E+02-2.07237E+02 5.94674E+03-1.01367E+02-1.87455E+03 8.30644E+03
 -1       486-2.23284E+02-8.25608E+01-1.82411E+03 2.29138E+02-4.62916E+02 1.33873E+03
 -1       487-7.33088E+02 1.25691E+02-3.84865E+03-8.08937E+01-3.91588E+02 1.80779E+03
 -1       488-5.99791E+01 1.40307E+02-1.73307E+03-2.30533E+02-6.92075E+02 3.97105E+03
 -1       489-8.10299E+01 9.42610E+00-1.60366E+03-1.93413E+02-6.09501E+02 3.79753E+03
 -1       490 1.87851E+02-5.36416E+02 2.40795E+03-2.47393E+01-1.82461E+03 6.09836E+03
 -1       491 2.00363E+00 1.66662E+02-1.58997E+03 2.20774E+01-2.78907E+02 2.54139E+03
 -1       492 2.10212E+05 6.92364E+04 7.88812E+05 4.40828E+04-2.16771E+04 7.16154E+04
 -1       493 3.05114E+05 1.61414E+05 1.01191E+06-2.50339E+04-7.19861E+04 9.80127E+03
 -1       494 2.47040E+05 3.28976E+04 9.38003E+05 3.11860E+03-3.95066E+04 2.98436E+04
 -1       495 1.26855E+05-1.70383E+04 7.59516E+05 1.63156E+04 1.03615E+03 6.53712E+04
 -1       496 2.23961E+05 3.05151E+04 8.69442E+05 3.70554E+03-2.20816E+04 5.17723E+04
 -1       497 1.60589E+05-4.87327E+04 8.85225E+05 1.79122E+04-2.13945E+04 3.08772E+04
 -1       498 2.66836E+05 6.30116E+04 8.86310E+05-1.64940E+04-3.90013E+04-2.44000E+04
 -1       499 2.44404E+05 1.17334E+05 7.58750E+05-1.79959E+04-2.63256E+04-3.29866E+04
 -1       500 3.11821E+05 1.76649E+05 9.78060E+05-2.08288E+04-4.99188E+04-6.69932E+03
 -1       501 1.84358E+05-2.09627E+04 7.94883E+05-1.40856E+04-1.28674E+04-1.51390E+04
 -1       502 2.01022E+05 4.28777E+03 9.05158E+05-1.44254E+04-2.92189E+04 4.45148E+03
 -1       503 1.99500E+05 1.45074E+05 5.19291E+05-2.20092E+04-1.28394E+04-3.91188E+04
 -1       504 1.58912E+05 1.09545E+04 5.44695E+05-2.18163E+04 4.53217E+03-4.27236E+04
 -1       505-3.46170E+02 5.80779E+02 3.98804E+04 1.49895E+02-2.32177E+03-4.83657E+03
 -1       506 5.22240E+00 6.50240E+02 5.01107E+04-1.17507E+02-2.48232E+03-4.58252E+03
 -1       507-9.44018E+02 1.52159E+02 5.67021E+04 8.41037E+01-2.88280E+03-4.73914E+03
 -1       508-1.63310E+03-2.98322E+02 5.63399E+04 1.46299E+02-2.69111E+03-3.20971E+03
 -1       509-6.98153E+02-6.42343E+02 5.98694E+04 4.36697E+02-2.10210E+03-6.52232E+03
 -1       510-1.30785E+03-3.35301E+02 5.84152E+04 4.86871E+02-2.47462E+03-5.16211E+03
 -1       511-5.12936E+02 3.22405E+01 6.94771E+04-2.17868E+02-2.52759E+03-4.49107E+03
 -1       512-6.17506E+02-4.52510E+01 4.11061E+04-6.82114E+01-2.26646E+03-3.62945E+03
 -1       513 3.63098E+04 2.88138E+02 6.81387E+05 1.30014E+03-9.34512E+03 1.51015E+04
 -1       514 4.50605E+04 1.85770E+03 6.77636E+05-9.47521E+02-7.15530E+03 1.55968E+04
 -1       515 5.08127E+04 1.30921E+02 6.92506E+05 1.17456E+03-9.42820E+03 1.68714E+04
 -1       516 7.32986E+04 3.03342E+03 7.33235E+05 7.81489E+02-1.32092E+04 1.57967E+04
 -1       517 5.58575E+04-2.44079E+03 7.31497E+05 2.25454E+03-1.02746E+04 2.17248E+04
 -1       518 2.65028E+04 1.12827E+03 6.45117E+05 2.55446E+03-7.90651E+03 1.12515E+04
 -1       519 3.43692E+04 4.09056E+03 6.68506E+05 1.80471E+03-6.69489E+03 1.45841E+04
 -1       520 4.13301E+04-5.94511E+02 6.91031E+05 3.81624E+03-9.22128E+03 1.95911E+04
 -1       521 6.36784E+04 1.10405E+02 7.36682E+05 4.30767E+03-9.67389E+03 2.61850E+04
 -1       522 2.20150E+04-6.19672E+03 6.31414E+05 1.66941E+03-5.20133E+03 1.53555E+04
 -1       523 3.19992E+04-6.68944E+02 6.22051E+05 5.17865E+02-9.29116E+03 1.54617E+04
 -1       524 4.49579E+04-8.63452E+02 6.39849E+05-6.75335E+02-9.24459E+03 1.20636E+04
 -1       525 4.42160E+04 1.23330E+03 5.91915E+05-1.90668E+03-9.30772E+03 1.10748E+04
 -1       526 5.58066E+04 7.52479E+01 6.31006E+05-3.10956E+03-1.09540E+04 9.87255E+03
 -1       527 7.97465E+04 1.45638E+03 6.45381E+05-3.80850E+03-8.42156E+03-2.69911E+03
 -1       528 8.16109E+04-1.81388E+03 6.98717E+05-3.97392E+03-9.84395E+03 7.68105E+03
 -1       529 1.00369E+05 4.87150E+01 7.39453E+05-9.73856E+02-1.31318E+04 1.05583E+04
 -1       530 2.27324E+04-1.55695E+01 6.22242E+05-1.65487E+02-1.00586E+04 1.20044E+04
 -1       531 2.77964E+04 4.75356E+02 5.96814E+05-6.31475E+02-7.61651E+03 1.51563E+04
 -1       532 1.55106E+04-1.77282E+03 6.04851E+05 1.63920E+03-6.36162E+03 5.99659E+03
 -1       533 2.61929E+04 2.98082E+03 6.41269E+05-1.03328E+02-7.99016E+03 1.06366E+04
 -1       534 1.73378E+04 2.92366E+03 6.00090E+05 2.20030E+03-5.97900E+03 1.02373E+04
 -1       535 3.16925E+04-5.95808E+02 5.29876E+05-2.61029E+03-8.67642E+03 1.37633E+04
 -1       536 4.32530E+04 1.09221E+03 5.26854E+05-1.37631E+03-7.45360E+03 7.29518E+03
 -1       537 2.64034E+04 5.93786E+02 5.45706E+05-5.25103E+02-8.84067E+03 1.65150E+04
 -1       538 2.60287E+04 2.22468E+03 4.85590E+05-1.61976E+03-8.82125E+03 1.68590E+04
 -1       539 1.92980E+04-3.29772E+02 5.43188E+05-5.53659E+02-8.52874E+03 1.67936E+04
 -1       540-6.32096E+02 3.68019E+02 1.73833E+04 1.09450E+02-1.32340E+03-2.23178E+03
 -1       541-9.78594E+02-2.39250E+02 1.43496E+04-1.82985E+02-1.23554E+03-1.43735E+03
 -1       542-1.02664E+03-2.35404E+02 1.97407E+04 3.79604E+01-1.02492E+03-1.19176E+03
 -1       543-8.86360E+02 1.21229E+02 2.49464E+04-1.17136E+02-1.53330E+03-5.19345E+01
 -1       544-1.38556E+03-9.57989E+01 2.07563E+04-2.49015E+02-8.61556E+02 7.20973E+02
 -1       545-6.27707E+02-3.04024E+02 1.74563E+04-2.30101E+02-1.42744E+03-3.11816E+03
 -1       546-4.21519E+02 2.64229E+02 1.33959E+04-4.37845E+01-1.14885E+03-2.76785E+03
 -1       547-1.18128E+03-5.10167E+01 2.84452E+04-1.15098E+02-1.94901E+03-1.97519E+03
 -1       548-5.14349E+02 9.12973E+02 3.18708E+04 5.86920E+02-1.50414E+03 6.37879E+02
 -1       549-3.55096E+02 2.28443E+02 2.93295E+04-2.35294E+02-1.94307E+03-3.17563E+03
 -1       550-3.06458E+02 1.52312E+02 2.30103E+04 2.79945E+02-1.50380E+03-3.18299E+03
 -1       551-1.13478E+03-2.88025E+02 1.20021E+04 1.61649E+02-1.02956E+03-4.46081E+02
 -1       552-7.56643E+02 6.76508E+01 1.08325E+04-7.91384E+01-9.46237E+02-1.65516E+03
 -1       553-1.09907E+03-3.19794E+02 1.52032E+04 2.13309E+02-1.27823E+03 1.04111E+03
 -1       554-8.48975E+02 2.02948E+02 1.94010E+04 8.35782E+01-1.47067E+03 2.40955E+03
 -1       555-1.41439E+03-5.12126E+02 1.13631E+04 4.69383E+01-8.61324E+02 2.47130E+02
 -1       556-1.15623E+03-3.09112E+02 1.05968E+04-1.82049E+02-8.36295E+02 1.52602E+03
 -1       557-1.06803E+03 1.36120E+02 8.62047E+03-8.15395E+01-9.20358E+02-4.15266E+00
 -1       558-7.87689E+02-2.50820E+02 9.41750E+03 3.77670E+00-1.48932E+03-2.80544E+03
 -1       559-3.84962E+02 2.33012E+02 8.87087E+03-3.83499E+01-1.32692E+03-2.23651E+03
 -1       560-6.29454E+02 1.47653E+02 7.31406E+03 9.19037E+01-1.03831E+03-1.67212E+03
 -1       561-1.37883E+03-1.29630E+02 3.56126E+04-7.50635E+01-1.77675E+03 1.60953E+03
 -1       562-1.05682E+03-2.23353E+02 4.03819E+04-6.08751E+02-1.85729E+03-4.23485E+01
 -1       563-1.03356E+03 5.28208E+02 3.36078E+04 4.57248E+02-1.96665E+03-3.25690E+03
 -1       564-1.17543E+03-1.28198E+02 4.15129E+04-2.27717E+02-2.17039E+03-2.35318E+03
 -1       565-8.45386E+02-2.43686E+02 4.87265E+04 3.74595E+02-1.70674E+03-1.21985E+03
 -1       566-1.11635E+03-2.27079E+02 1.41115E+04-3.22865E+02-8.59170E+02 3.60637E+03
 -1       567-1.18481E+03 7.45049E+01 1.96717E+04 8.13374E+01-1.01335E+03 3.79478E+03
 -1       568-4.80069E+02 2.39405E+02 1.92574E+04-9.23067E+01-1.80536E+03 5.77352E+03
 -1       569-7.85199E+02 2.48583E+02 2.59024E+04-9.91492E+01-1.77316E+03 4.83911E+03
 -1       570-9.59451E+02-8.06395E+01 3.48018E+04 6.50790E-01-1.96425E+03 3.98478E+03
 -1       571-9.07382E+02-6.43477E+01 3.36099E+04-1.39923E+02-1.19378E+03 6.21098E+03
 -1       572-9.58485E+02-1.59567E+02 4.46420E+04-3.05800E+02-2.24276E+03 3.05632E+03
 -1       573-6.82570E+02 3.49392E+02 5.25348E+04-3.42349E+02-1.90478E+03 8.86414E+03
 -1       574 1.14838E+02 7.02719E+02 4.45599E+04-1.37756E+01-2.80327E+03 1.07450E+04
 -1       575-9.17780E+02 6.19519E+01 5.81666E+04 4.01458E+02-3.16638E+03 9.90123E+03
 -1       576-4.95395E+02 6.19126E+02 6.61740E+04-4.21259E+02-2.17257E+03 1.20985E+04
 -1       577 1.78866E+02 7.42198E+02 7.62773E+04-2.16692E+02-2.78454E+03 9.76889E+03
 -1       578-7.96559E+02 5.16704E+02 5.60413E+04 4.23065E+02-2.41659E+03 6.37463E+03
 -1       579-9.91758E+02-1.19624E+02 4.10449E+04-3.26213E+02-1.67149E+03 7.43295E+03
 -1       580-1.49053E+03 1.25534E+02 8.88612E+04 7.74948E+02-3.74892E+03 8.64761E+03
 -1       581-1.14715E+03 2.27448E+02 8.37442E+04-2.44579E+02-3.84430E+03 5.94077E+03
 -1       582-1.01173E+03 5.29984E+02 5.43249E+04 3.29283E+02-2.15664E+03 3.92819E+03
 -1       583-1.20078E+03-4.61702E+02 6.56689E+04-9.01867E+02-2.89959E+03 4.40805E+03
 -1       584-1.51474E+03-1.74480E+02 7.25691E+04-2.51783E+02-3.14761E+03 1.15442E+03
 -1       585-6.94798E+02 2.20968E+02 7.65474E+04 6.39797E+02-2.68732E+03 4.07621E+03
 -1       586-5.41677E+02 3.61229E+02 9.28027E+04-1.09736E+02-2.23195E+03 2.90616E+03
 -1       587-6.52892E+02 5.01834E+01 3.75091E+04-7.43610E+01-2.01226E+03 1.28482E+04
 -1       588-1.08327E+02-1.63553E+02 3.27814E+04-6.74631E+02-2.92836E+03 1.08137E+04
 -1       589 1.36848E+03 7.27374E+02 5.20393E+04-2.09305E-01-2.19778E+03 1.41530E+04
 -1       590-7.58145E+02-1.01414E+01 6.52066E+04 2.99984E+02-2.82240E+03 1.37543E+04
 -1       591 9.44695E+02-4.77989E+02 2.64054E+04-2.58017E+02-1.92364E+03 1.21532E+04
 -1       592 8.04962E+01 1.59479E+02 3.77704E+04-1.47416E+02-3.22986E+03 1.28393E+04
 -1       593-2.72199E+02 2.20214E+02 3.69355E+04-3.75449E+02-1.73968E+03 1.37829E+04
 -1       594-2.00132E+01-1.22644E+03 2.23219E+04-1.91114E+02-1.99157E+03 1.07614E+04
 -1       595-3.37057E+02 1.63584E+02 2.72028E+04 3.70588E+02-1.36060E+03 1.00169E+04
 -1       596-2.63890E+01 2.77461E+01 3.05571E+04 1.68197E+01-2.46788E+03 8.56670E+03
 -1       597-5.28372E+02-4.52474E+02 2.13735E+04-4.11773E+02-2.12472E+03 8.57561E+03
 -1       598 1.04458E+05 3.63693E+03 6.30145E+05-8.04114E+03-1.34183E+04-1.91007E+04
 -1       599 6.83587E+04-1.59830E+02 5.60414E+05-5.11489E+03-7.86153E+03-6.27634E+03
 -1       600 3.71143E+04 5.11383E+03 4.49593E+05-1.83633E+03-5.73182E+03 5.57548E+03
 -1       601 4.87498E+04 3.10533E+03 5.05972E+05-6.60139E+03-6.13023E+03-7.08384E+01
 -1       602 5.82613E+04 8.29184E+02 4.74400E+05-5.11967E+02-4.75803E+03-1.58542E+04
 -1       603 1.27738E+05 9.42713E+02 7.70676E+05-5.40219E+03-1.53359E+04 4.46980E+03
 -1       604 1.14229E+05 1.07890E+03 7.95204E+05-4.73516E+02-1.45555E+04 2.18562E+04
 -1       605 8.43088E+04-5.90565E+03 5.24243E+05-1.02704E+04-3.08427E+03-3.34985E+04
 -1       606 1.20290E+05 9.36921E+02 6.36815E+05-1.00553E+04-6.12743E+03-2.75680E+04
 -1       607 1.64324E+05 7.91827E+03 6.46597E+05-1.68191E+04-8.13291E+03-4.64453E+04
 -1       608 1.46434E+05 3.20545E+03 7.22591E+05-1.28149E+04-9.85304E+03-2.34319E+04
 -1       609 1.58221E+05 4.22495E+03 7.86135E+05-6.04802E+03-1.30257E+04-7.33408E+03
 -1       610 1.60158E+05-4.11263E+03 8.29766E+05-6.63344E+03-2.15050E+04 2.49431E+03
 -1       611-1.48346E+03-1.01155E+02 9.76476E+04-5.97863E+02-3.24181E+03 1.03826E+04
 -1       612 9.67641E+02 9.68865E+02 8.42383E+04 6.99121E+00-2.81381E+03 1.43158E+04
 -1       613-1.35571E+03-7.87273E+02 9.81563E+04 4.38406E+02-3.16985E+03 1.33857E+04
 -1       614-1.37554E+03-1.02587E+03 9.99841E+04 2.92261E+01-3.18949E+03 1.65668E+04
 -1       615 6.36409E+02 1.69270E+03 1.21325E+05-8.87863E+02-2.51573E+03 1.34071E+04
 -1       616 4.10643E+02 9.56625E+02 1.08727E+05-1.28076E+02-3.08766E+03 7.62152E+03
 -1       617-1.37704E+03-6.88372E+02 1.34408E+05-2.96536E+02-4.67832E+03 9.60453E+03
 -1       618 2.88332E+02 7.52379E+02 1.41012E+05 1.05904E+03-3.75441E+03 1.29543E+04
 -1       619-4.88841E+02 9.62189E+01 1.33163E+05 2.48459E+02-2.81510E+03 6.07892E+03
 -1       620-1.99172E+03 1.83567E+02 1.48379E+05-8.12930E+02-2.93361E+03 5.45785E+03
 -1       621-1.32715E+03 1.70311E+02 1.10703E+05-7.08471E+02-2.41384E+03 3.31708E+03
 -1       622-1.10532E+03-3.90408E+02 1.17983E+05-3.42311E+02-3.20182E+03 5.37713E+03
 -1       623-1.61083E+03-6.56939E+02 1.33325E+05-8.40963E+01-3.62673E+03 1.90598E+03
 -1       624-1.05631E+03-1.10061E+03 6.57279E+04-2.40766E+02-3.36947E+03 1.63733E+04
 -1       625 1.61893E+03 9.95663E+02 8.24258E+04 8.42901E+01-2.29529E+03 1.83847E+04
 -1       626-4.02338E+02 4.39659E+02 1.00016E+05-4.08053E+01-4.28193E+03 1.75574E+04
 -1       627 1.85825E+02 8.01457E+02 4.33425E+04-2.45275E+02-2.01578E+03 1.55779E+04
 -1       628-6.27004E+01 4.27186E+02 5.90829E+04-7.00598E+01-3.22033E+03 1.65731E+04
 -1       629 1.05358E+03 3.79353E+03 5.66496E+04 1.10236E+03-2.31124E+03 1.74247E+04
 -1       630 7.41968E+04 1.17831E+03 7.58914E+05 7.24904E+03-6.07304E+03 3.40111E+04
 -1       631 9.85650E+04 9.08948E+02 7.96341E+05 4.85687E+03-1.32843E+04 3.08657E+04
 -1       632 9.09425E+04 7.66838E+03 7.84325E+05 6.59772E+03-6.73702E+03 4.35110E+04
 -1       633 3.95855E+04-3.52248E+03 6.92953E+05 1.07014E+04-4.84156E+03 2.98209E+04
 -1       634 1.30184E+05 1.43160E+03 8.21140E+05 5.03511E+03-1.57568E+04 2.79630E+04
 -1       635 2.38600E+03 2.14213E+03 2.12884E+05-1.26650E+03-3.39910E+03 2.39328E+04
 -1       636-1.17105E+03-8.66356E+02 2.38383E+05 1.21824E+03-5.62259E+03 2.42561E+04
 -1       637-1.16966E+03-1.05545E+03 2.50951E+05 7.32375E+02-6.92249E+03 2.10424E+04
 -1       638 9.90872E+02 1.26126E+02 2.82694E+05-3.90852E+02-4.43744E+03 1.66211E+04
 -1       639 1.26055E+03 1.05141E+03 2.51296E+05 1.36869E+03-5.05531E+03 1.72451E+04
 -1       640-1.24870E+03 5.44607E+02 1.69373E+05-2.20177E+02-4.72203E+03 2.62562E+04
 -1       641-7.41916E+01 6.30762E+02 1.84208E+05 8.41611E+01-5.78745E+03 2.31294E+04
 -1       642-1.45165E+03-1.07554E+03 2.45335E+05-4.89415E+02-6.50558E+03 1.28935E+04
 -1       643 1.23194E+03 2.38603E+03 2.24940E+05-1.70260E+03-4.37415E+03 1.81104E+04
 -1       644-2.12252E+02 4.27180E+02 1.92878E+05-1.05518E+02-5.60589E+03 1.85118E+04
 -1       645-1.62772E+03-8.88876E+02 1.87962E+05 2.94710E+02-4.35501E+03 2.22112E+04
 -1       646 2.30679E+03 1.05080E+03 1.56143E+05-3.59916E+01-3.39331E+03 2.47862E+04
 -1       647 1.66180E+03 1.42369E+03 1.93627E+05-2.68461E+02-6.00218E+03 2.66997E+04
 -1       648 4.29400E+02-9.65094E+02 2.41264E+05-5.14147E+02-5.98290E+03 2.49293E+04
 -1       649 4.63522E+02-2.46802E+01 3.09749E+05 8.46082E+02-6.06975E+03 1.55449E+04
 -1       650-9.15482E+02-2.37630E+02 3.05265E+05-1.10516E+02-6.44489E+03 1.10202E+04
 -1       651-1.53005E+03-2.24065E+03 3.20826E+05-2.90019E+02-6.17425E+03 1.83923E+04
 -1       652 2.05353E+03 2.28110E+03 2.77433E+05-6.01431E+02-2.69405E+03 2.42579E+04
 -1       653 1.65371E+03 8.65370E+02 3.11572E+05 1.13298E+03-6.15635E+03 2.22411E+04
 -1       654 1.95233E+03 8.07092E+02 3.49276E+05 1.05374E+00-5.59359E+03 1.26079E+04
 -1       655 4.09932E+02 6.42019E+02 2.22810E+05-3.29534E+02-5.73431E+03 2.77160E+04
 -1       656-2.67473E+03-6.95009E+03 1.13156E+05-2.17196E+03-4.22200E+03 2.36456E+04
 -1       657 1.15099E+03 1.01907E+03 1.41816E+05-5.09187E+02-6.33960E+03 2.55707E+04
 -1       658 2.82969E+03 4.38706E+02 1.42400E+05 4.96426E+02-3.62642E+03 2.59087E+04
 -1       659-1.42349E+01 1.66049E+02 2.45910E+05 2.58294E+02-3.90312E+03 8.24473E+03
 -1       660-1.89211E+03 3.07206E+02 2.66342E+05-1.05938E+03-4.05449E+03 7.26100E+03
 -1       661-1.69315E+03-6.49616E+02 2.81798E+05-3.91492E+02-6.03450E+03 5.14273E+02
 -1       662 5.28073E+02 1.95738E+03 2.91575E+05 1.53215E+03-4.36298E+03 6.68938E+03
 -1       663 1.07735E+03 9.95828E+02 3.22866E+05-5.15286E+02-3.94666E+03 4.57005E+03
 -1       664-2.85250E+03-1.56828E+03 1.92428E+05-8.34758E+01-4.40430E+03 1.51856E+04
 -1       665 9.47782E+02 1.65131E+02 1.68024E+05-1.72400E+02-3.18796E+03 2.04025E+04
 -1       666-1.11374E+03-4.91021E+02 1.82568E+05 8.88448E+02-4.76147E+03 1.25232E+04
 -1       667 6.43369E+02 1.23886E+03 2.10709E+05-1.26297E+01-4.28399E+03 1.00355E+04
 -1       668-1.46694E+03-3.30250E+02 2.15624E+05-6.73871E+02-3.77333E+03 4.41292E+03
 -1       669-7.44608E+02-4.39637E+02 2.25728E+05-3.12530E+02-4.56621E+03 7.19496E+03
 -1       670-1.94194E+03-1.26837E+03 2.46998E+05 9.24652E+00-4.92818E+03 2.62365E+03
 -1       671-1.88835E+03-9.14427E+02 1.32469E+05-7.06879E+02-4.60201E+03 2.30525E+04
 -1       672-1.34677E+01 5.72059E+02 1.40951E+05 4.04783E+02-5.15228E+03 1.96669E+04
 -1       673-2.10075E+03-3.27270E+03 8.63717E+04-1.72529E+03-3.93596E+03 2.15109E+04
 -1       674 9.32014E+00 4.80398E+02 1.15704E+05 2.47678E+02-4.78880E+03 2.27447E+04
 -1       675 2.75481E+03 7.23906E+03 1.10171E+05 1.93924E+03-3.00131E+03 2.33980E+04
 -1       676 1.44729E+03 1.41047E+03 1.19091E+05-1.17756E+03-2.79749E+03 1.83902E+04
 -1       677-2.29265E+03-2.09244E+03 1.37698E+05 1.17867E+03-3.88049E+03 1.90998E+04
 -1       678-9.74445E+02-1.49510E+02 1.43522E+05 1.55335E+01-5.43580E+03 1.62220E+04
 -1       679-6.89200E+01-1.88367E+02 1.63150E+05-4.16339E+02-3.12614E+03 1.28516E+04
 -1       680 1.77787E+03 4.55491E+01 1.11817E+05 4.12971E+01-3.18276E+03 2.15747E+04
 -1       681-1.28526E+03 1.87757E+02 1.78478E+05-3.46342E+02-4.91022E+03 8.83961E+03
 -1       682-1.39966E+03-1.67939E+02 9.29777E+04-2.65047E+02-3.64467E+03 2.00626E+04
 -1       683-1.98070E+03-2.64892E+03 6.07777E+04-1.48558E+03-3.46972E+03 1.82291E+04
 -1       684 2.10785E+02 5.19856E+02 8.09381E+04 2.65476E+02-3.96637E+03 1.95962E+04
 -1       685 2.32416E+03 5.60700E+03 8.15858E+04 1.78649E+03-2.49978E+03 2.06154E+04
 -1       686-1.74383E+03-4.90051E+02 1.59315E+05-2.15812E+02-4.41578E+03 4.86768E+02
 -1       687-3.03042E+02 1.12326E+03 1.67354E+05 1.23056E+03-3.65228E+03 5.08781E+03
 -1       688-1.21345E+02 5.96410E+02 1.88824E+05-4.85247E+02-4.03290E+03 2.91649E+03
 -1       689 2.06734E+04-7.11691E+02 3.66234E+05-2.11956E+03-4.82469E+03 1.40222E+04
 -1       690 2.78458E+04 3.78091E+03 3.49311E+05-1.91160E+03-4.79681E+03 4.69438E+03
 -1       691 2.49879E+04-2.19798E+03 2.96113E+05-6.15406E+03-5.31096E+03-2.16026E+03
 -1       692 4.72067E+04 2.46940E+03 3.78771E+05-5.62446E+03-1.97822E+03-1.55890E+04
 -1       693 5.28670E+04-1.14328E+04 4.13664E+05-1.10545E+04 8.94374E+02-2.48956E+04
 -1       694 1.76828E+04 1.71011E+03 3.13568E+05-1.95335E+03-2.87255E+03 1.80956E+04
 -1       695 1.94697E+04 1.61379E+02 4.08834E+05-1.83699E+03-5.16271E+03 1.69299E+04
 -1       696 1.45866E+04 3.31164E+03 2.75576E+05 8.96925E+02-4.30361E+03 2.15890E+04
 -1       697 1.57990E+04-7.77063E+02 4.24662E+05-1.65913E+03-7.26970E+03 2.10311E+04
 -1       698 1.30781E+03 1.73540E+03 3.03404E+05-5.35805E+01-4.86697E+03 2.65723E+04
 -1       699 3.84548E+03 2.48269E+03 3.55188E+05-1.69911E+03-5.46984E+03 2.09338E+04
 -1       700 5.77482E+02-6.07159E+02 3.83554E+05 2.37240E+02-7.47561E+03 1.71343E+04
 -1       701 1.44721E+03-8.64224E+02 3.74631E+05 6.11746E+02-7.14342E+03 2.20234E+04
 -1       702 1.78308E+03 1.03521E+03 3.90279E+05 8.61074E+02-6.48533E+03 1.06747E+04
 -1       703 2.74304E+03-1.36899E+03 4.18203E+05-1.52616E+03-6.53860E+03 1.12473E+04
 -1       704-2.28848E+02 4.70737E+02 3.56544E+05-9.71673E+02-3.86249E+03 5.51728E+03
 -1       705 1.17325E+03-3.55136E+02 3.67797E+05-3.43576E+02-6.19861E+03 8.64382E+03
 -1       706-1.28042E+03-1.56716E+03 3.95188E+05 3.50899E+02-6.13151E+03 3.34750E+03
 -1       707 2.77355E+03 1.78411E+03 2.47920E+05-3.27400E+02-4.57922E+03 2.77697E+04
 -1       708 2.11818E+03 1.14953E+03 2.88006E+05 1.45691E+02-5.95855E+03 2.71408E+04
 -1       709 4.33390E+02-5.75281E+01 1.52572E+05-7.36661E+02-5.18010E+03 2.69571E+04
 -1       710 6.96556E+02-1.11383E+03 1.91205E+05 2.13677E+02-4.76165E+03 2.79879E+04
 -1       711 2.53117E+03 1.91951E+03 1.75634E+05 2.30666E+03-3.59816E+03 2.77348E+04
 -1       712 3.53525E+03-6.48698E+02 3.34808E+05 7.57761E+02-6.19465E+03 2.65345E+04
 -1       713 3.85340E+03 1.67227E+02 3.74536E+05-1.97921E+03-7.94514E+03 2.32532E+04
 -1       714 4.75985E+03-2.09749E+03 3.72590E+05-1.00245E+03-4.38233E+03 2.37846E+04
 -1       715 5.35692E+03-7.53670E+02 4.18184E+05 2.35624E+02-6.76052E+03 2.19587E+04
 -1       716 6.18499E+03-8.99479E+01 4.55141E+05 5.10406E+02-6.36385E+03 1.88656E+04
 -1       717 3.52628E+03-9.88470E+02 4.54418E+05-6.06818E+02-7.43087E+03 1.47923E+04
 -1       718-1.32945E+03-1.70986E+03 4.36706E+05-7.31799E+02-7.46790E+03 3.09993E+03
 -1       719 4.38963E+03 1.26344E+03 4.44184E+05 1.33283E+03-6.02580E+03 1.06047E+04
 -1       720 7.36267E+03 1.72888E+03 4.85237E+05-6.30462E+02-7.01462E+03 8.21845E+03
 -1       721 1.37757E+03-1.42105E+03 2.81107E+05-8.20043E+02-6.46887E+03 2.92930E+04
 -1       722 4.52170E+03-1.89482E+03 3.08650E+05-4.34080E+02-6.72585E+03 2.84597E+04
 -1       723 5.73760E+03 7.36633E+02 3.55185E+05-1.56258E+02-8.62217E+03 2.57846E+04
 -1       724-3.05964E+02 2.83323E+02 1.89588E+05-1.87432E+03-4.71773E+03 2.67325E+04
 -1       725 3.45894E+03 2.07372E+03 2.38853E+05-1.52491E+02-5.65156E+03 2.83506E+04
 -1       726 4.07477E+03 6.89485E+03 2.17664E+05 2.29243E+03-5.14554E+03 2.90573E+04
 -1       727 9.98732E+03 1.16730E+03 4.64745E+05-9.25456E+02-5.09162E+03 2.10876E+04
 -1       728 1.03175E+04 1.93259E+03 4.09932E+05-2.30896E+02-5.60188E+03 2.47598E+04
 -1       729 1.08581E+04 7.38350E+02 4.47948E+05-6.66037E+02-6.77712E+03 2.19258E+04
 -1       730 1.57887E+04 2.38950E+03 4.47513E+05-1.00716E+03-7.90776E+03 2.18318E+04
 -1       731 1.70904E+04 5.42486E+02 5.07309E+05-2.72557E+02-6.95793E+03 1.94327E+04
 -1       732 1.14775E+04 2.57120E+03 5.03653E+05-1.71512E+02-6.51689E+03 1.64041E+04
 -1       733 1.52833E+04-2.33451E+02 5.48656E+05-7.42445E+02-7.89695E+03 1.48847E+04
 -1       734 6.73774E+03-1.12896E+03 5.21231E+05-1.15309E+02-6.70679E+03 1.01294E+04
 -1       735 1.13993E+04 2.90265E+02 5.27999E+05 5.24546E+02-7.29983E+03 1.30071E+04
 -1       736 1.00946E+04-3.70761E+03 5.65150E+05 1.34214E+03-6.39080E+03 1.03159E+04
 -1       737 9.11626E+03 2.58262E+03 3.43381E+05-6.93883E+02-7.69376E+03 2.58752E+04
 -1       738 1.21443E+04-2.14180E+02 3.77648E+05-5.54572E+02-6.32652E+03 2.40666E+04
 -1       739 5.23175E+03-3.54975E+03 2.36708E+05-2.21669E+03-6.08784E+03 2.58015E+04
 -1       740 6.49148E+03 1.48792E+03 2.85365E+05-1.15678E+03-7.44408E+03 2.49630E+04
 -1       741 3.11796E+02-3.02499E+02 1.45684E+04-3.13684E+02-1.94984E+03 9.48317E+03
 -1       742 3.72748E+02 1.19204E+03 1.72654E+04 5.80017E+02-2.26028E+03 1.05907E+04
 -1       743-6.01823E+01-2.42581E+02 1.41106E+04 1.26622E+01-1.67391E+03 8.57338E+03
 -1       744-3.12043E+02 9.52526E+00 1.70234E+04 3.55217E+02-1.36995E+03 7.44805E+03
 -1       745 4.85273E+02-3.28141E+02 1.09877E+04 1.66878E+02-1.65680E+03 8.43191E+03
 -1       746-5.02975E+01-3.42191E+01 6.96118E+03-3.72014E+02-1.14548E+03 7.22494E+03
 -1       747 8.52538E+04-4.05643E+03 4.32880E+05-1.55404E+04 1.24798E+03-4.53140E+04
 -1       748 1.21225E+05 1.28697E+04 4.51029E+05-1.48415E+04 1.09197E+04-5.04980E+04
 -1       749-7.06676E+01-4.23034E+02 3.39718E+04 3.56413E+02-2.03363E+03 1.40111E+04
 -1       750-5.25277E+02 2.09852E+02 9.79387E+03-1.67964E+01-1.26321E+03 3.77974E+03
 -1       751-1.03650E+03-4.61602E+01 9.67105E+03-9.57654E+01-8.24896E+02 2.42937E+03
 -1       752-3.35126E+02 1.22280E+02 1.25677E+04-3.81649E+02-1.69082E+03 6.07893E+03
 -1       753-7.32875E+02-4.09478E+01 5.60732E+03-2.47615E+02-1.05655E+03 4.03162E+03
 -1       754-4.96155E+02-4.33840E+01 9.47203E+03 2.00791E+02-4.49389E+02 5.14992E+03
 -1       755-1.05981E+02-1.08600E+02 8.39748E+03-5.70141E+01-1.44752E+03 6.24993E+03
 -1       756-9.36082E+02 1.88350E+00 7.20921E+03 2.04981E+02-9.28623E+02 1.84413E+03
 -1       757 1.03640E+03-6.15972E+03 4.01879E+05 6.90691E+03-6.30833E+03-6.91632E+03
 -1       758 4.75257E+03 7.11561E+02 4.25462E+05 9.92358E+02-6.92035E+03-4.28464E+03
 -1       759 1.12079E+04 2.50179E+03 4.44080E+05 1.07096E+03-4.77796E+03 4.76526E+02
 -1       760 6.01688E+03-2.89143E+03 4.59835E+05 4.27595E+03-1.07421E+04-5.06275E+03
 -1       761 7.26627E+03 2.80820E+03 4.69474E+05 4.50606E+02-6.65611E+03-5.59202E+03
 -1       762 6.57262E+03 5.33003E+02 5.25140E+05 4.16125E+02-5.76187E+03-3.40348E+03
 -1       763-1.41948E+03-1.85045E+02 5.42961E+04 5.09111E+01-2.41009E+03 1.32482E+03
 -1       764-6.45270E+02 7.70456E+01 6.58239E+04 3.28751E+02-2.18061E+03-1.17344E+03
 -1       765-8.90625E+02 4.08003E+02 5.70953E+04-4.90355E+02-1.88669E+03-9.00475E+02
 -1       766-2.73688E+02-7.06796E+02 2.31561E+03-3.37671E+01-5.50487E+02 4.67292E+03
 -1       767 3.66469E+02-1.16427E+02 1.16989E+03-3.90146E+01-4.87353E+02 5.06673E+03
 -1       768 2.30652E+02 1.90331E+02 3.22757E+03-1.56983E+02-8.61327E+02 5.32556E+03
 -1       769 2.21355E+02 1.19678E+02 5.64620E+03-9.58749E+01-1.12613E+03 6.60869E+03
 -1       770-3.10616E+01 6.53282E+01 1.12668E+03-1.41223E+02-4.55580E+02 3.82487E+03
 -1       771-2.60878E+02-2.47485E+02 2.91374E+03-1.09580E+02-4.63172E+02 4.04142E+03
 -1       772-6.56041E+02-1.01872E+02 3.75821E+03 9.64060E+01-6.53898E+02 3.14381E+03
 -1       773 9.13361E+01-2.20949E+02-1.02190E+03-2.00745E+00-8.91172E+02 3.43667E+03
 -1       774-3.37845E+02-4.62272E+02-1.20390E+03-1.42655E+02-7.70691E+02 3.34106E+03
 -1       775-9.13675E+02 2.06495E+02 4.44947E+03-6.10605E+01-5.66306E+02 1.91397E+03
 -1       776-1.24484E+03-2.32946E+01 4.86083E+03-1.62060E+02-4.91807E+02 9.78168E+02
 -1       777-9.43792E+02 1.67937E+01 5.59822E+03 1.55581E+01-4.52323E+02 1.35238E+02
 -1       778 1.05913E+05-1.84748E+03 6.89601E+05 2.50059E+04 2.77486E+03 6.88805E+04
 -1       779 1.11537E+05-1.76435E+04 7.74473E+05 8.27131E+03-2.27354E+03 6.44972E+04
 -1       780 1.01144E+05 4.80940E+03 7.69450E+05 1.16708E+04-8.64523E+03 5.09476E+04
 -1       781 1.26470E+05-5.44161E+03 8.27263E+05 1.30194E+04-7.33277E+03 4.58687E+04
 -1       782 1.53847E+05 4.29882E+03 8.64345E+05 6.59712E+03-2.08677E+04 3.33755E+04
 -1       783 5.43201E+04-5.57388E+03 6.07572E+05 1.99764E+04 5.52063E+03 7.61402E+04
 -1       784-7.81487E+02-3.65450E+01 2.48440E+03-1.13950E+02-5.29560E+02-9.31963E+02
 -1       785-1.04429E+03-7.91605E+01 5.46723E+03-8.19221E+01-8.04846E+02-6.30178E+02
 -1       786-8.23241E+02 1.98097E+01 4.05747E+03 4.24440E+01-4.68121E+02-1.11444E+03
 -1       787-6.32275E+02-8.58913E+01 6.44964E+03-5.02605E+01-6.69743E+02-1.27948E+03
 -1       788 3.97083E+03 2.10382E+02 3.37499E+05 2.59567E+03-8.61601E+03-1.00921E+04
 -1       789 1.51551E+03-2.19087E+03 3.89307E+05 3.44647E+02-3.94814E+03-1.06318E+04
 -1       790 2.75716E+01 1.16583E+03 3.13929E+05 1.22322E+03-3.28741E+03-9.71574E+03
 -1       791 3.35950E+02 9.11617E+02 3.35418E+05 2.03423E+01-7.00455E+03-9.74002E+03
 -1       792 2.73679E+03 4.14233E+02 4.42323E+05 1.52223E+03-7.01577E+03-6.37915E+03
 -1       793 5.96026E+03 6.28427E+02 4.58228E+05 2.89456E+02-5.45428E+03-5.16761E+03
 -1       794 2.01912E+03-2.35702E+03 5.12592E+05-2.12680E+02-7.29243E+03-3.70845E+03
 -1       795 2.63615E+03 2.74174E+02 4.37342E+05 1.17842E+03-6.57596E+03-4.68086E+03
 -1       796 2.62678E+03-1.78663E+02 4.80318E+05-2.84484E+02-7.77481E+03-4.94950E+02
 -1       797 7.54727E+02-2.76371E+03 3.41130E+05 2.45345E+03-7.76268E+03-1.02201E+04
 -1       798 9.09861E+02-6.96911E+02 4.05303E+05-3.91636E+02-5.53583E+03-8.75052E+03
 -1       799 3.60470E+03 1.13248E+03 4.39530E+05-1.31519E+02-6.93646E+03-1.21832E+03
 -1       800 9.24484E+03 2.86564E+02 5.48076E+05 2.14908E+03-7.11831E+03 4.17966E+03
 -1       801 9.72742E+03 1.35252E+03 5.29524E+05-5.87902E+02-6.45756E+03 4.77931E+03
 -1       802 4.79920E+03-3.13171E+01 4.98462E+05 1.20160E+03-7.79435E+03 5.59291E+03
 -1       803-1.36643E+03-1.82338E+03 7.23819E+04 3.19329E+02-2.96950E+03-6.36204E+03
 -1       804-9.45151E+02-9.57035E+02 8.82775E+04 8.05997E+02-3.55165E+03-5.08730E+03
 -1       805-5.76477E+02 2.62028E+02 8.67462E+04-3.06344E+01-3.20740E+03-4.18613E+03
 -1       806-8.02737E+02 4.97419E+02 9.25675E+04 1.88462E+02-3.34528E+03-6.07192E+03
 -1       807-1.29906E+03-3.08888E+02 1.07429E+05-5.59890E+02-3.16558E+03-4.53775E+03
 -1       808-3.89632E+01-8.32235E+02 9.38710E+04 6.59008E+02-3.58146E+03-7.94073E+03
 -1       809-9.34563E+02 2.68147E+02 7.92480E+04 2.40252E+02-2.96826E+03-2.37096E+03
 -1       810-4.92743E+02 3.82614E+02 9.30770E+04-5.08727E+02-3.02638E+03-5.87857E+02
 -1       811-8.78140E+02 1.83825E+02 7.52344E+04-1.31270E+02-2.20328E+03-1.11931E+03
 -1       812-1.19660E+03 7.91389E+01 1.19484E+05 3.83550E+02-3.03256E+03-2.02556E+03
 -1       813-1.33874E+02 5.65406E+02 1.12395E+05-4.11880E+02-3.04428E+03 2.18393E+02
 -1       814-1.90607E+03 1.74180E+01 9.84799E+04 9.05723E+01-3.20410E+03 1.79127E+03
 -1       815-1.01019E+02-1.79259E+03 1.26143E+05 1.38654E+03-3.04297E+03-8.88739E+03
 -1       816-2.30803E+03-3.58519E+03 1.48369E+05 7.38173E+02-4.54180E+03-9.05348E+03
 -1       817-1.34265E+03 1.46394E+03 1.23109E+05 2.15405E+02-2.73275E+03-8.63126E+03
 -1       818-5.29842E+02-1.87131E+03 1.75284E+05 1.59399E+03-4.93503E+03-7.01956E+03
 -1       819-1.70381E+01 1.02365E+03 1.77677E+05 5.79523E+01-4.98050E+03-5.93951E+03
 -1       820-6.72895E+02 1.11300E+03 1.78339E+05 4.54288E+02-4.42489E+03-8.25701E+03
 -1       821-1.59148E+03-3.31820E+02 2.06803E+05-6.10951E+02-4.44841E+03-6.37453E+03
 -1       822 5.91337E+02-1.61454E+03 1.75920E+05 1.43244E+03-4.78372E+03-1.09505E+04
 -1       823-1.18198E+03 3.36684E+02 1.64103E+05 1.71994E+02-3.99286E+03-3.76744E+03
 -1       824-1.59607E+03 3.38283E+02 1.88069E+05-7.01645E+02-3.63565E+03-1.92966E+03
 -1       825-8.19299E+02-1.51057E+03 1.23043E+05 4.81694E+02-3.73573E+03-7.79870E+03
 -1       826-4.87719E+01 2.84262E+02 1.50259E+05-6.02859E+02-3.70541E+03-6.64026E+03
 -1       827-6.90182E+02 6.84752E+02 1.61805E+05-7.56122E+01-2.96067E+03-2.23838E+03
 -1       828-9.64040E+02 3.11767E+02 2.25313E+05 5.53353E+02-4.24579E+03-2.70111E+03
 -1       829 4.27935E+01 5.08035E+02 2.17638E+05-2.07608E+02-4.33730E+03 5.25264E+02
 -1       830-1.30753E+03-9.62417E+01 2.01359E+05 8.34293E+02-4.53431E+03 1.63057E+03
 -1       831 4.10560E+02-3.60814E+03 2.16984E+05 2.70398E+03-4.32719E+03-1.12409E+04
 -1       832 5.69687E+01-4.89905E+03 2.53061E+05-1.56579E+02-7.32634E+03-1.17614E+04
 -1       833-1.34331E+03 2.97149E+03 2.16882E+05 3.75576E+02-3.77594E+03-1.14915E+04
 -1       834 1.07125E+03 3.23006E+02 2.89358E+05 1.70392E+02-5.96299E+03-7.47196E+03
 -1       835-4.49374E+01 5.60351E+02 3.00612E+05-2.42214E+02-4.68482E+03-6.42123E+03
 -1       836 3.90259E+02 2.12014E+03 2.92251E+05 1.14604E+03-6.06499E+03-9.53154E+03
 -1       837-1.31473E+03-5.27251E+02 3.39306E+05-7.44158E+02-4.69067E+03-8.36889E+03
 -1       838 1.72274E+03-2.21200E+03 2.81487E+05 2.50581E+03-6.27224E+03-1.39070E+04
 -1       839-9.30918E+02 6.72130E+02 2.83626E+05 4.39333E+02-5.58705E+03-4.59950E+03
 -1       840-1.44887E+02-5.41910E+02 3.17501E+05-6.66822E+02-6.07229E+03-2.36407E+03
 -1       841-6.67781E+02-2.84408E+03 2.19686E+05 9.83298E+02-4.98626E+03-1.03149E+04
 -1       842 7.11830E+02 6.14573E+02 2.63566E+05-6.40617E+02-5.17960E+03-8.77256E+03
 -1       843-4.92678E+01 1.14748E+03 2.83898E+05-3.53053E+00-4.28294E+03-2.61388E+03
 -1       844 7.20310E+02 2.91862E+02 3.67268E+05 1.14586E+03-5.58071E+03-3.38163E+03
 -1       845 2.10347E+03 1.20179E+03 3.58970E+05-7.29962E+02-5.14438E+03 5.76463E+02
 -1       846-8.89941E+02 6.07589E+02 3.34173E+05 3.62176E+01-5.01610E+03 3.30365E+03
 -1       847 6.48842E+04 9.67912E+02 7.18108E+05 1.02626E+04 1.62092E+03 5.08252E+04
 -1       848 6.22026E+04 2.61746E+03 6.41379E+05 1.25474E+04 4.65373E+03 5.21261E+04
 -1       849 5.28932E+04-1.44774E+02 6.41671E+05 1.38240E+04-6.22262E+02 4.60116E+04
 -1       850 4.49918E+04-1.09402E+03 6.28905E+05 4.26260E+03-4.04573E+03 3.00182E+04
 -1       851 4.12252E+04 7.27941E+03 6.15183E+05 6.68796E+03 9.15102E+02 2.90710E+04
 -1       852 1.65610E+05 1.36997E+03 8.61804E+05 4.42495E+02-2.69080E+04 2.02709E+04
 -1       853 2.98422E+04 3.59209E+03 5.83020E+05 2.23218E+03-6.85466E+03 1.53787E+04
 -1       854-1.03250E+03-2.19429E+03 1.06855E+05 6.66490E+02-3.83652E+03-7.57364E+03
 -1       855-1.73230E+03-2.91878E+02 1.29601E+05 6.02642E+01-4.31794E+03-5.41022E+03
 -1       856-1.34072E+03-3.90639E+03 1.96208E+05 1.19961E+03-5.66814E+03-9.98521E+03
 -1       857-2.12563E+03-5.23488E+02 2.35959E+05 1.75461E+02-5.97501E+03-7.10114E+03
 -1       858-1.57775E+03-4.63354E+03 3.13944E+05 2.86133E+03-8.67418E+03-1.02071E+04
 -1       859-1.58650E+03-9.30698E+02 3.74074E+05 3.12067E+02-8.53136E+03-7.92205E+03
 -1       860 1.69247E+04 3.06576E+03 4.92905E+05-4.83861E+02-5.21083E+03 2.69217E+03
 -1       861 7.27993E+03-7.73191E+02 5.49928E+05 2.34651E+03-5.43163E+03 5.36027E+03
 -1       862 1.02757E+04-4.49563E+02 5.47901E+05 6.96716E+02-6.91194E+03-3.42437E+02
 -1       863 2.16902E+04 2.64187E+03 5.43730E+05 3.92984E+03-6.28508E+03 1.22381E+04
 -1       864 1.03877E+04-3.80434E+03 5.67523E+05 1.65092E+03-8.23105E+03 1.99199E+03
 -1       865 1.56551E+04 1.39218E+03 5.78028E+05 1.48807E+02-6.16808E+03 6.97554E+03
 -1       866-4.07621E+02 7.52481E+02 1.47990E+05 5.50993E+02-3.15753E+03-1.25921E+03
 -1       867-1.88211E+01 8.06619E+02 1.33809E+05-7.05750E+02-2.78713E+03-2.37846E+03
 -1       868 2.30240E+02 1.20336E+03 2.65746E+05 8.55796E+02-4.11955E+03-1.58410E+03
 -1       869 8.56247E+02 1.35818E+03 2.45487E+05-9.01797E+02-3.67506E+03-3.34051E+03
 -1       870 1.94746E+03 2.21352E+03 4.17028E+05 1.05380E+03-5.84908E+03-6.92240E+02
 -1       871 3.26355E+03 1.88423E+03 3.90440E+05-7.81533E+02-5.21642E+03-3.19557E+03
 -1       872 1.02764E+02-9.79025E+01-2.07681E+02 2.02862E+01-2.21043E+01 7.80957E+01
 -1       873 1.14959E+02-3.32470E+01-6.33607E+02 2.51810E+01-6.46069E+01 1.92685E+02
 -1       874-1.40062E+04-1.22591E+04-1.65674E+05 1.19940E+03 1.91037E+04 9.36075E+03
 -1       875-3.41741E+03-1.56399E+02-1.66442E+05-6.58119E+02 1.19107E+03-3.46727E+00
 -1       876-1.44661E+03 2.70355E+03-1.52360E+05 1.42149E+02-6.59124E+02 3.11803E+03
 -1       877-2.17356E+03 1.97413E+03-1.45441E+05-5.81141E+02-1.67689E+03 2.98745E+03
 -1       878-5.37557E+03-1.08076E+03-1.57805E+05-2.10855E+02-2.47007E+02 4.01449E+03
 -1       879 1.30405E+03 2.86330E+03-1.18993E+05-1.37575E+03-9.24105E+02 7.18060E+02
 -1       880-2.00939E+03-4.94919E+02-1.30932E+05 1.49671E+02-3.20710E+03 4.09794E+02
 -1       881-4.73643E+03 3.22641E+02-1.03958E+05-1.14718E+03-5.35374E+02 5.63827E+02
 -1       882-3.51744E+03 1.87546E+02-1.10675E+05-1.45662E+02 9.99222E+02 7.54735E+02
 -1       883-1.11390E+03 7.85793E+02-8.30376E+04-5.06431E+02-2.40051E+02 4.86824E+02
 -1       884-1.90988E+03 9.87542E+01-8.92903E+04 3.90988E+02-9.42093E+02-2.70268E+02
 -1       885-2.32388E+03 4.85191E+02-6.68158E+04-6.99473E+02 5.35531E+01 1.21049E+03
 -1       886-2.30981E+03 2.03170E+02-7.37227E+04-8.02699E+02 2.62385E+02 6.73526E+02
 -1       887 1.77474E+02-2.70234E+03-4.08566E+04-4.11794E+02-5.28311E+02-2.93910E+02
 -1       888-3.08566E+03-1.21739E+03-5.29540E+04-3.42006E+02 1.35598E+03 8.47223E+02
 -1       889-1.22782E+03-3.60941E+01-5.89338E+04-3.78475E+01-2.17416E+02 1.75654E+03
 -1       890 7.45123E+02-1.55126E+03-2.84233E+04-3.41767E+02-3.57909E+02-5.46005E+02
 -1       891-3.23048E+03-1.92436E+03-4.10106E+04-1.13186E+03 2.93983E+02 8.15875E+02
 -1       892-2.09843E+03-1.07836E+03-2.95267E+04-8.11577E+02 5.60782E+02 4.09792E+02
 -1       893 7.78457E+02-2.02988E+02-1.84955E+04-4.78815E+02-2.08013E+02 6.35722E-01
 -1       894 1.22062E+03-7.89021E+02-2.04053E+04-5.53969E+01-2.19726E+02-7.24354E+02
 -1       895-6.56444E+02 4.83272E+01-1.25710E+04-1.76649E+02 1.26898E+02 3.26966E+02
 -1       896-2.96603E+02-3.44412E+01-1.50732E+04 6.93021E+01 1.18004E+02 3.22442E+02
 -1       897 7.62937E+02 7.24193E+01-5.81062E+03-3.10667E+01-8.80040E+01 2.43202E+02
 -1       898 2.95923E+02 7.44297E+01-8.17710E+03 1.60035E+01-1.12909E+02-7.38857E+01
 -1       899-5.16586E+01 9.78733E+01-2.37251E+03-7.41608E+00 3.05888E+01 3.13627E+02
 -1       900-6.81028E+01-5.14294E+01-4.40186E+03-1.36314E+02 1.67615E+02 4.17130E+02
 -1       901-8.00826E+01-9.84221E+01-8.34460E+03-9.51658E+01-9.17055E+02-2.68895E+03
 -1       902-6.28880E+02-6.76597E+01-4.32012E+03-1.32661E+02-7.86811E+02-3.03708E+03
 -1       903-5.37853E+02-3.89349E+01-1.57876E+03 1.10002E+02-3.44548E+02-1.85681E+03
 -1       904 4.98998E+01 7.17810E+01-7.72160E+04 3.00700E+01-2.67296E+03-4.70645E+03
 -1       905-8.31752E+01-1.18915E+02-9.33030E+04-5.38372E+00-3.30351E+03-6.10025E+03
 -1       906 3.43417E+02-3.60834E+02-6.95801E+04-9.87320E+01-1.86483E+03-7.71844E+03
 -1       907-1.11691E+03 9.39781E+02-1.96597E+05-3.94472E+02-2.80112E+03-1.79716E+04
 -1       908-1.39914E+03 4.85160E+01-2.21412E+05 2.99951E+00-4.05714E+03-1.87428E+04
 -1       909-2.34128E+03-1.37039E+03-2.76083E+05-5.55860E+02-5.58678E+03-1.92491E+04
 -1       910-2.69072E+03 4.93561E+02-3.46184E+05-3.48003E+02-5.48669E+03-1.09030E+04
 -1       911-1.84078E+03 3.49698E+02-3.63736E+05 1.12670E+02-6.03641E+03-4.91927E+03
 -1       912-3.35100E+03-4.24639E+02-3.87393E+05 1.42962E+02-6.57171E+03-1.01461E+04
 -1       913-2.11322E+01 2.56385E+02-3.86279E+04-3.19236E+02-2.96715E+03-6.07278E+03
 -1       914-6.85173E+02-5.65299E+01-3.71795E+04 4.91419E+02-7.96845E+02-7.65449E+03
 -1       915-1.73060E+02 3.01797E+02-2.67091E+04-2.58096E+01-1.50985E+03-5.48645E+03
 -1       916-3.66103E+04-1.04605E+03-4.78204E+05-7.29452E+02-6.95379E+03-2.37882E+02
 -1       917-3.98469E+04-1.10572E+02-4.39022E+05-4.84634E+02-4.16771E+03 2.14344E+04
 -1       918-1.68630E+04-2.42209E+02-3.40074E+05-5.52770E+02-2.80790E+03 9.68070E+02
 -1       919-5.85367E+02-8.29861E+01-5.23577E+04-2.13556E+02-2.22941E+03-9.02018E+03
 -1       920-1.83425E+02-5.13679E+02-4.93832E+04-2.52346E+02-2.11493E+03-6.96159E+03
 -1       921-3.03157E+04 1.35982E+03-3.25651E+05-8.62634E+02 3.92224E+03 1.26720E+04
 -1       922-3.97119E+02 2.56032E+02-1.01375E+05 2.74777E+02-2.58568E+03-1.07655E+04
 -1       923-1.16511E+03 1.29648E+03-8.78503E+04-5.86185E+02-3.31338E+03-1.14055E+04
 -1       924-3.79908E+02-1.30895E+01-7.95813E+04-8.85130E+01-2.70101E+03-9.64579E+03
 -1       925-2.66630E+03 8.43191E+02-2.94329E+05 4.74640E+01-4.89917E+03-1.47659E+04
 -1       926-1.18895E+03-3.36988E+02-3.14270E+05 4.15496E+02-6.61834E+03-9.79470E+03
 -1       927-2.76452E+02 3.06129E+02-1.44884E+05-4.21514E+02-3.66697E+03-1.14400E+04
 -1       928-8.53847E+02-4.55075E+02-1.20830E+05-9.86800E+00-2.43895E+03-1.43547E+04
 -1       929-6.46405E+02-1.02272E+03-1.15850E+05 4.00807E+01-3.38338E+03-1.11429E+04
 -1       930-3.06451E+03-1.51665E+02-3.38759E+05-2.37141E+02-6.07952E+03-1.57739E+04
 -1       931-1.50011E+02 5.03722E+02-1.97891E+05 6.34186E+02-3.67514E+03-1.41970E+04
 -1       932-1.04104E+03 1.68511E+02-1.63982E+05 1.00011E+02-3.97988E+03-1.52431E+04
 -1       933-7.06783E+02 8.83612E+02-1.63594E+05-4.79409E+02-3.76977E+03-1.27401E+04
 -1       934-5.05340E+03 1.13201E+03-2.98487E+05 7.74852E+02-1.17836E+03-1.72459E+04
 -1       935-1.46411E+03-3.27163E+03-2.15254E+05-1.80987E+03-3.45425E+03-1.54333E+04
 -1       936-4.25339E+03 5.80037E+02-3.05134E+05 3.71410E+02-5.42102E+03-1.89366E+04
 -1       937-1.08069E+03 2.50707E+01-2.50265E+05-9.04703E+02-5.17047E+03-1.46256E+04
 -1       938-9.20826E+02-1.58394E+03-2.11490E+05 2.54696E+02-4.51639E+03-1.46441E+04
 -1       939-3.26799E+03 1.30675E+03-2.17132E+05-4.71267E+02 1.81333E+02-1.20128E+04
 -1       940-5.97627E+03 8.03081E+02-3.97534E+05 2.81398E+02-7.17627E+03-1.65248E+04
 -1       941 3.06271E+02 2.15597E+02-5.14716E+03 2.64784E+01-4.46110E+02 7.11103E+02
 -1       942 2.26303E+02 6.94888E+01-1.28921E+03-7.15422E+00-1.77893E+02 2.26381E+02
 -1       943-1.53375E+04 3.48040E+02-4.56089E+05-4.10967E+01-7.80587E+03-1.59161E+04
 -1       944-1.22524E+04-1.31245E+03-3.85941E+05-7.09215E+02-6.16263E+03-1.58674E+04
 -1       945-8.69187E+03-5.06544E+02-3.86606E+05-6.60977E+02-7.57096E+03-1.77282E+04
 -1       946-1.30074E+03-2.72081E+02-1.58649E+05-2.45603E+02-4.12024E+03-1.68000E+04
 -1       947-4.05346E+04-1.35285E+02-5.74333E+05 3.81187E+02-1.04318E+04-1.42570E+04
 -1       948-2.54172E+04-8.84967E+02-4.80173E+05-2.56371E+02-6.41869E+03-1.14217E+04
 -1       949-2.50273E+03-6.31385E+02-1.26050E+05 9.37967E-01-1.37638E+03-1.24504E+04
 -1       950-4.57874E+02 3.12853E+02-2.78629E+05-1.13914E+02-5.63342E+03-9.17536E+03
 -1       951-6.53835E+02 1.24370E+02-2.90676E+05 2.49714E+02-5.00157E+03-2.27690E+03
 -1       952-1.32958E+03-1.08453E+03-1.61708E+05-1.53602E+02-3.61696E+03-1.59717E+04
 -1       953-1.44789E+02-6.34411E+01-1.13223E+05-1.86410E+02-3.73775E+03-1.41131E+04
 -1       954-2.07303E+02-8.76355E+02-1.07853E+05 2.15389E+02-3.47416E+02-1.04842E+04
 -1       955-9.22871E+02 7.33999E+02-1.21437E+05-7.45578E+02-3.01033E+03-1.40890E+04
 -1       956-3.03976E+02-1.71872E+02-8.26907E+04-4.80466E+02-3.07634E+03-1.23109E+04
 -1       957 7.51604E+02 1.32219E+03-8.13295E+04 2.12279E+02-8.76354E+02-1.04260E+04
 -1       958-9.10529E+03-1.29821E+03-5.30305E+05-4.50540E+02-5.85575E+03-8.79478E+03
 -1       959-7.74912E+03-6.87295E+03-5.34031E+05-9.66115E+02-7.81773E+03 2.44839E+03
 -1       960-6.60792E+03 2.94367E+03-5.58203E+05 2.61568E+03-6.00469E+03-8.18899E+03
 -1       961 4.90159E+01 4.67859E+02-4.64906E+04-1.15593E+02-1.90563E+03-4.00620E+03
 -1       962 4.22226E+02-6.12108E+01-5.27515E+04-2.51128E+01-2.48498E+03-1.68008E+03
 -1       963 3.15526E+02 4.80568E+01-6.18864E+04 5.22628E+01-2.33164E+03-4.62356E+03
 -1       964-9.92011E+02-4.30312E+02-8.72105E+04-1.09005E+02-2.44172E+03-1.22904E+04
 -1       965-5.38572E+02-2.07689E+02-5.65645E+04-3.96093E+02-2.07537E+03-1.00628E+04
 -1       966 1.14650E+03 7.40512E+02-5.74335E+04 2.51840E+02-1.11685E+03-8.70452E+03
 -1       967-1.07127E+03 1.13658E+03-5.97313E+04-6.49727E+02-2.54310E+03-1.02410E+04
 -1       968-6.77635E+02 1.94772E+01-3.43318E+04-2.41490E+02-1.69093E+03-8.17311E+03
 -1       969 2.04299E+02 7.81027E+02-3.68255E+04 3.30691E+00-1.21982E+03-7.54113E+03
 -1       970-7.13532E+02 2.30956E+03-4.95397E+05 1.10351E+03-4.36097E+03-1.82238E+03
 -1       971-8.72974E+02 1.25688E+02-2.86045E+04-3.07104E+02-1.56605E+03-7.58922E+03
 -1       972-9.36952E+01-1.45976E+02-2.10020E+04-4.27977E+02-7.62995E+02-5.65907E+03
 -1       973-4.78579E+02 3.42667E+02-1.69929E+04-3.30877E+02-5.44040E+02-5.60110E+03
 -1       974-7.56849E+02 5.00903E+01-6.34176E+03-2.39477E+02-6.65672E+02-4.05002E+03
 -1       975-6.14914E+02 2.79425E+02-5.93077E+02-1.02290E+02-3.64554E+02-2.14267E+03
 -1       976-2.65874E+02 2.38995E+02-8.29470E+04 1.16928E+02-2.55528E+03-1.56131E+03
 -1       977 2.57000E+02-1.73065E+02-1.62666E+03-1.32667E+02-4.90892E+02-2.54265E+03
 -1       978-6.73737E+04-4.14406E+02-7.09525E+05 2.20270E+03-1.37959E+04-4.59191E+04
 -1       979-1.35243E+05-2.02859E+03-7.67396E+05 8.35346E+03-1.98012E+04-5.06031E+04
 -1       980-1.09803E+05-1.50271E+03-7.00451E+05 1.60159E+02-1.74359E+04-1.98644E+04
 -1       981-8.69300E+04 1.04292E+04-7.75863E+05 1.57652E+04 6.98398E+03-9.77843E+04
 -1       982-1.73705E+05 1.39770E+04-8.09891E+05 1.87409E+04-2.96823E+04-6.00951E+04
 -1       983 1.23882E+02 8.01509E+02-1.16543E+05 1.60619E+02-3.42079E+03-6.84418E+03
 -1       984 2.80300E+02 2.49679E+02-1.23321E+05 7.67759E+01-3.50342E+03-2.32952E+03
 -1       985 3.13132E+02-4.94434E+02-1.37797E+05-3.38228E+02-3.85254E+03-6.65979E+03
 -1       986-1.93515E+03-5.67376E+02-4.02795E+05 2.99951E+02-5.32672E+03-3.46233E+03
 -1       987-2.04674E+02 7.67857E+02-3.73119E+05 7.16497E+02-3.59827E+03 3.50214E+03
 -1       988-4.84807E+02-2.60715E+03-4.05531E+05-2.83578E+02-5.10406E+03 7.11768E+03
 -1       989-5.62553E+04-1.36122E+03-6.49400E+05 6.03217E+02-1.22393E+04-2.49711E+04
 -1       990-2.54095E+04 6.89386E+02-6.06441E+05 8.17073E+02-8.70799E+03-2.13393E+04
 -1       991-6.58445E+02 3.73136E+02-1.59863E+05-1.42830E+02-3.87751E+03-7.90613E+03
 -1       992 3.52565E+02-7.55291E+01-1.70570E+05 3.54607E+01-3.97369E+03-2.99521E+03
 -1       993-3.02877E+02 7.13795E+01-1.88659E+05 5.00047E+01-4.44598E+03-8.06615E+03
 -1       994-6.63154E+01 1.25193E+03-2.16801E+05 2.41676E+02-4.51707E+03-9.24558E+03
 -1       995-1.05775E+01 3.53430E+02-2.26865E+05 5.18030E+01-4.81979E+03-3.23526E+03
 -1       996-4.61363E+00-9.55946E+02-2.43555E+05-5.21922E+02-5.07453E+03-8.77561E+03
 -1       997-6.79518E+04 2.41897E+03-5.23153E+05-1.56411E+03-7.37797E+03 2.02452E+04
 -1       998-6.98974E+04 4.80438E+02-6.04553E+05-3.61617E+02-1.02217E+04-5.62293E+03
 -1       999-1.13159E+05-2.24094E+03-5.65201E+05-3.13992E+03-6.44799E+03 4.06564E+04
 -1      1000-1.00177E+05 7.82710E+03-4.36657E+05-1.32519E+04-8.01180E+03 5.69684E+04
 -1      1001-5.86051E+04 3.24786E+03-4.25085E+05-4.20233E+02-1.83277E+02 4.20856E+04
 -1      1002-9.16897E+02 2.22184E+02-5.62722E+02-9.41341E+01-2.62136E+02-2.17547E+03
 -1      1003-7.46921E+02-1.02898E+02 1.03985E+03 1.46551E+01-1.52742E+02-1.38984E+03
 -1      1004-5.67297E+02-7.53081E+01-1.27356E+04-1.57132E+02-1.02616E+03-4.64413E+03
 -1      1005-2.14684E+05 1.58798E+04-8.63773E+05 8.85573E+03-2.07149E+04-1.91936E+04
 -1      1006-1.63214E+05 3.95359E+04-6.80384E+05-1.00262E+04-1.63771E+03 2.85695E+04
 -1      1007-1.79380E+05 1.16951E+04-7.74593E+05-5.78482E+03-1.72064E+04-1.56877E+03
 -1      1008-8.53094E+02 3.21455E+02-1.85568E+04-3.34773E+02-1.22022E+03-6.15254E+03
 -1      1009-1.25840E+03-7.40862E+02-2.33973E+05-2.63550E+02-5.21941E+03-1.79394E+04
 -1      1010-1.66906E+03 3.32589E+03-1.69212E+05-8.51705E+02-2.73747E+03-1.51798E+04
 -1      1011-7.77659E+03-2.97881E+02-2.69788E+05-7.71102E+01-3.39976E+03-9.24811E+03
 -1      1012-1.70728E+04-2.86101E+01-3.82802E+05 3.92673E+02-5.08275E+03-7.70014E+03
 -1      1013-4.01919E+03-8.77827E+02-4.33019E+05 8.84974E+01-5.22560E+03-1.01210E+04
 -1      1014-2.64782E+03-1.11700E+03-4.41272E+05-2.83318E+02-5.94355E+03-2.93946E+03
 -1      1015-7.06150E+03 2.45109E+02-4.80518E+05 3.51915E+02-7.21112E+03-8.71461E+03
 -1      1016 1.85421E+02-4.22673E+02-1.79973E+04-7.60606E+01-1.49778E+03-3.91947E+03
 -1      1017-1.29545E+05 1.46766E+03-6.63150E+05-1.26084E+03-1.33486E+04 1.83060E+04
 -1      1018 1.75681E+02-1.21924E+01-1.22117E+03 6.20224E+01-2.69741E+02-4.14212E+02
 -1      1019 1.89465E+02-4.74648E+01-1.19626E+02 2.96459E+01-5.12560E+01 2.07528E+02
 -1      1020-3.14843E+04-4.08686E+02-6.52889E+05 2.34524E+03-8.43012E+03-3.25753E+04
 -1      1021-2.63018E+02-2.33027E+02-7.22493E+03-1.68006E+01-3.76551E+02-3.55110E+03
 -1      1022 4.29252E+02-6.66398E+01-2.34309E+04-1.30501E+02-1.51667E+03-1.50063E+03
 -1      1023 1.95363E+02 3.01789E+02-1.24470E+04-4.68636E+00-1.03807E+03-1.87390E+03
 -1      1024 1.60773E+02 1.39780E+02-1.70483E+04 1.44055E+02-1.11027E+03-4.99983E+02
 -1      1025-1.15432E+04-1.23443E+04-5.58503E+05 2.88288E+03 2.19380E+03-1.37896E+04
 -1      1026 3.22750E+02 2.07207E+00-5.02713E+03-6.29360E+01-7.04720E+02-1.50096E+03
 -1      1027 3.77000E+02 5.86883E+01-4.69367E+03 3.61788E+01-6.21699E+02-1.95374E+02
 -1      1028 3.17370E+02 5.49512E+01-9.99342E+03-9.05505E+00-9.03455E+02-5.44486E+02
 -1      1029 4.96997E+02-6.76935E+01-9.73306E+03-6.34332E+01-4.55780E+02 8.23417E+02
 -1      1030 3.25790E+02-4.25900E+00-1.53680E+04 2.31347E+02-8.61103E+02 7.15585E+02
 -1      1031-2.22146E+02-3.40960E+02-5.74888E+04 8.45902E+01-6.66990E+02 2.10986E+03
 -1      1032 9.47384E+02 4.62016E+01-7.01765E+04-2.05611E+02-1.92720E+03 2.01089E+03
 -1      1033 6.46517E+02-1.55167E+02-5.26239E+04 5.91840E+01-1.42961E+03 1.68360E+03
 -1      1034 5.29235E+02-3.70326E+02-1.11219E+05 1.28681E+02-2.10179E+03 3.13178E+03
 -1      1035 6.88372E+02 6.09261E+01-8.89422E+04-8.36959E+01-2.12518E+03 2.42389E+03
 -1      1036-2.67424E+02 1.25945E+02-1.54523E+05-9.90280E+01-2.93883E+03 3.47216E+03
 -1      1037 4.91861E+02-1.42287E+02-1.30257E+05 1.76280E+02-2.42616E+03 3.12578E+03
 -1      1038 3.98279E+02 5.01492E+01-3.93486E+04-2.83401E+01-1.96940E+03-8.21871E+02
 -1      1039 5.77106E+02-1.53805E+02-2.98484E+04 7.27087E+01-1.14337E+03 5.89115E+02
 -1      1040 3.46402E+02-6.29869E+02-2.11410E+05 1.84052E+02-2.89853E+03 4.17126E+03
 -1      1041 8.75765E+02-4.98086E+01-1.79344E+05-7.08413E+01-2.82715E+03 3.37417E+03
 -1      1042-1.33372E+03 3.15701E+02-2.68346E+05 2.99133E+01-3.61945E+03 4.76709E+03
 -1      1043 2.36164E+02-1.71039E+02-2.36295E+05 3.27304E+02-3.11112E+03 3.97182E+03
 -1      1044 7.87933E+02 9.94020E+01-3.90513E+04 2.51797E+02-1.58977E+03 1.85642E+03
 -1      1045-4.32821E+02-2.37377E+03-3.34187E+05-2.23046E+02-5.10128E+03 4.11762E+03
 -1      1046 1.64631E+03 1.86674E+03-2.99445E+05 4.72501E+02-1.95255E+03 6.92193E+03
 -1      1047-6.35606E+02-7.12336E+02-3.30527E+05-1.21483E+02-5.24952E+03-2.55669E+03
 -1      1048 1.29860E+02 3.31997E+00-6.73908E+04-6.51711E+01-2.52248E+03-1.27324E+03
 -1      1049 2.65983E+02-2.09318E+02-1.02364E+05-1.00852E+02-2.72124E+03-1.61016E+03
 -1      1050 2.23943E+02-1.89022E+02-1.45426E+05-1.18568E+02-3.56067E+03-2.40465E+03
 -1      1051 1.14961E+02-4.14874E+02-1.98282E+05-3.10086E+02-3.88514E+03-2.40194E+03
 -1      1052-1.63042E+02-3.43719E+02-2.56725E+05-1.68213E+02-4.54389E+03-3.16450E+03
 -1      1053-3.81562E+02-2.08009E+02-1.01866E+03-1.70252E+01-3.04454E+02-1.04084E+03
 -1      1054 8.08159E+02 5.81074E+02-3.07624E+04 6.41926E+01-9.45154E+02 2.02423E+03
 -1      1055-1.92354E+04-3.54153E+02-5.51352E+05 1.33496E+03-8.92056E+03-1.48569E+04
 -1      1056-1.37277E+04 1.59464E+03-5.10078E+05-6.01325E+02-9.05556E+03-1.36910E+04
 -1      1057-9.04670E+03-5.35109E+02-4.52972E+05 5.33362E+01-7.70660E+03-1.36613E+04
 -1      1058 2.58253E+02 1.23824E+02-2.30933E+04-5.12044E+00-1.02784E+03 1.56242E+03
 -1      1059-5.55480E+03 1.86972E+03-5.94908E+05 4.68197E+03-4.12099E+03-1.20085E+04
 -1      1060-1.58620E+04-8.50790E+02-6.36932E+05 1.44462E+03 2.24408E+03-2.56860E+04
 -1      1061-5.73118E+04-8.42373E+02-7.40966E+05 6.02962E+03-7.92997E+03-7.74227E+04
 -1      1062-2.09962E+04-2.97254E+03-6.94394E+05 3.49222E+03-1.18186E+03-3.92526E+04
 -1      1063-3.68394E+04 8.54959E+03-7.52079E+05 4.45332E+03-4.10631E+03-2.72184E+04
 -1      1064-1.53660E+03-3.14198E+03-4.28075E+05-1.77047E+03-4.60947E+03 2.11293E+03
 -1      1065-2.38549E+04 1.50603E+03-5.29194E+05 1.88109E+02-8.35691E+03-1.60163E+04
 -1      1066 2.25225E+02-2.24703E+02-3.19629E+04 1.52122E+01-1.73255E+03-3.39887E+03
 -1      1067-9.20321E+04-1.01704E+05-4.52817E+05 3.29921E+04 5.78498E+04-7.83537E+04
 -1      1068 1.42269E+02-3.10086E+01-1.58459E+02-2.25323E+01-2.12331E+02 3.96574E+01
 -1      1069 7.29434E+01-1.74901E+01 1.07892E+01 4.04465E+00-5.35883E+01 1.14187E+02
 -1      1070 1.39021E+02-3.04013E+01-8.37311E+01 6.14998E+01 1.59708E+01 2.11785E+02
 -1      1071-3.71325E+02-9.30301E+01 8.16747E+02-2.98936E+01-4.77374E+01-8.61587E+02
 -1      1072-2.80882E+01 3.45530E+02 7.30331E+02-6.66673E+01-7.37471E+01-8.42059E+02
 -1      1073-1.42478E+03-1.01906E+02 2.24550E+02 2.41893E+01-7.84305E+01-1.02373E+03
 -1      1074-4.76869E+04 6.19418E+03-2.55589E+05-9.57825E+02 2.17142E+04 4.30454E+04
 -1      1075-5.06864E+04-6.50887E+02-3.09628E+05-4.58394E+03 1.51962E+03 3.69366E+04
 -1      1076-1.03708E+05-1.47710E+04-3.61739E+05-1.04523E+04-2.91522E+03 3.54715E+04
 -1      1077-8.86930E+04-2.59718E+04-7.00627E+05 1.62647E+04 3.12742E+04-6.32897E+04
 -1      1078-7.76033E+04-2.55540E+04-5.99357E+05 5.71255E+03 3.22374E+04-6.94361E+04
 -1      1079-1.19823E+05-1.22325E+04-6.50519E+05 1.15497E+04 1.31339E+04-8.58576E+04
 -1      1080-2.37917E+04-3.22535E+04-5.36749E+05 2.39827E+03 1.50694E+04-8.01395E+03
 -1      1081-4.82645E+04-3.03572E+04-5.45631E+05 6.57821E+03 2.26441E+04-1.93421E+04
 -1      1082-3.88437E+04 2.43942E+04-7.20223E+05 8.02595E+03 3.57627E+03-8.44861E+04
 -1      1083-2.15451E+04-1.84072E+04-5.51375E+05 1.08274E+04 7.91286E+03-4.44442E+04
 -1      1084-6.16899E+04 1.39521E+04-7.48164E+05 3.10877E+03-2.17478E+04-6.55492E+04
 -1      1085-4.31491E+04-2.93685E+04-5.55074E+05 6.73297E+03 1.07179E+04-1.79796E+04
 -1      1086-1.17376E+04-2.87673E+04-4.72634E+05 3.85424E+03 4.36853E+03-2.39006E+04
 -1      1087 9.36685E+03 2.82050E+04-6.63257E+05-1.86158E+03-4.59933E+03-2.61603E+04
 -1      1088-7.73187E+03-1.95071E+04-4.26639E+05 1.70641E+03-5.72497E+03-1.78380E+04
 -1      1089-3.23076E+04-2.06124E+04-4.99922E+05 1.19079E+03-2.40715E+03-1.64808E+04
 -1      1090 1.33026E+04 1.99436E+04-5.97227E+05 4.89303E+03 2.72711E+03-1.88034E+04
 -1      1091 1.66091E+03-8.64201E+03-3.72949E+05 1.12667E+03-1.50957E+03-1.00870E+04
 -1      1092-4.99464E+03-1.82790E+04-3.85596E+05 1.24560E+03-7.13449E+03-1.15238E+04
 -1      1093-1.03942E+04-8.92821E+03-4.69844E+05 4.37080E+03-1.00293E+04-1.21584E+04
 -1      1094 1.17096E+03 4.69840E+03-5.66587E+05 4.27161E+03-2.88151E+03-6.70999E+03
 -1      1095-1.26472E+03 1.57207E+04-5.91280E+05 3.16150E+03-3.00113E+02-1.55332E+04
 -1      1096-1.02287E+04-1.65846E+04-3.87980E+05 3.69567E+03-6.33834E+02 8.42215E+03
 -1      1097-2.79880E+04-8.39831E+03-4.61628E+05 1.31596E+03-1.03187E+04-1.32317E+03
 -1      1098-1.17338E+04-3.08946E+02-4.59084E+05 1.54779E+03 5.12239E+03-2.57956E+03
 -1      1099 4.00551E+03 1.16985E+04-5.21472E+05 1.67343E+03-8.34547E+03-4.37834E+03
 -1      1100-3.63029E+03 2.93153E+03-5.45012E+05 5.18759E+03 4.42240E+03-6.24469E+03
 -1      1101-1.10933E+04-2.50281E+04-3.50264E+05-2.51725E+03-1.06488E+03 7.07164E+03
 -1      1102-2.28708E+04-1.61653E+04-4.19069E+05 8.82579E+03-1.83361E+04 6.86782E+03
 -1      1103 2.33227E+04 1.82954E+04-4.62011E+05 4.34352E+03-4.58548E+03-1.79429E+03
 -1      1104-1.29617E+03-9.42231E+03-3.12632E+05 3.63980E+03 4.75296E+03 6.74829E+03
 -1      1105-2.96112E+04-2.00670E+04-3.73521E+05 4.35818E+03 3.63052E+03 8.64497E+03
 -1      1106 1.04649E+04 1.00951E+04-4.32931E+05-1.67312E+03-6.26789E+03-5.59934E+03
 -1      1107-8.67202E+03-1.74785E+04-2.92568E+05 2.30199E+03-4.27448E+02 6.13847E+03
 -1      1108-1.83984E+04-9.27565E+03-3.41919E+05 4.28526E+03-8.94604E+03 8.67235E+03
 -1      1109 1.82839E+04 1.34969E+04-3.81312E+05 2.40730E+03-5.19416E+03 2.62497E+03
 -1      1110-8.92141E+03-1.58558E+04-2.79133E+05 2.53297E+03-2.21946E+03 7.62629E+03
 -1      1111-2.07071E+04-1.58288E+04-3.27672E+05 6.55836E+03-1.01371E+04 5.74871E+03
 -1      1112 2.06073E+04 1.50267E+04-3.55358E+05 2.53618E+03-4.59314E+03 2.69032E+03
 -1      1113-8.42451E+03-1.63312E+04-2.40348E+05 1.74037E+03-1.91451E+03 7.47585E+03
 -1      1114-2.16230E+04-1.09956E+04-2.91900E+05 3.00468E+03-1.05736E+04 8.24088E+03
 -1      1115 9.57374E+03 8.03425E+03-3.26860E+05 9.13764E+02-5.68983E+03 5.30884E+02
 -1      1116-3.56686E+03-1.23557E+04-2.16519E+05 1.93330E+03-3.16398E+03 3.04030E+03
 -1      1117-1.41915E+04-1.74476E+04-2.54511E+05 3.40728E+03-7.20341E+03 7.00227E+03
 -1      1118 1.93540E+04 1.19678E+04-2.87557E+05 8.95001E+02-4.43099E+03 3.43906E+03
 -1      1119-7.57767E+03-1.09420E+04-2.00930E+05 1.26957E+03-6.52118E+02 6.35708E+03
 -1      1120-1.92656E+04-8.60416E+03-2.45139E+05 2.98127E+03-8.78048E+03 2.67950E+03
 -1      1121 1.07222E+04 9.28647E+03-2.61556E+05-4.22718E+02-3.61636E+03 4.06451E+03
 -1      1122-5.75991E+03-1.09520E+04-1.74698E+05 1.89992E+03-2.46563E+03 4.88290E+03
 -1      1123-1.26479E+04-9.83469E+03-2.08783E+05 3.39494E+03-6.45637E+03 6.29352E+03
 -1      1124 8.29430E+03 6.90846E+03-2.34560E+05 9.31229E+02-4.72069E+03 3.12838E+03
 -1      1125-5.93960E+03-9.42506E+03-1.55067E+05 1.12804E+03-7.87115E+02 5.72340E+03
 -1      1126-1.42263E+04-7.40228E+03-1.89771E+05 2.71016E+03-6.29347E+03 4.99010E+03
 -1      1127 8.61352E+03 6.47636E+03-2.05997E+05 1.52984E+02-4.35357E+03 3.05268E+03
 -1      1128-3.30479E+03-8.35191E+03-1.31511E+05 1.38485E+03-3.04317E+03 3.21819E+03
 -1      1129-8.39748E+03-9.02142E+03-1.56300E+05 2.32496E+03-5.24120E+03 5.50872E+03
 -1      1130 1.13429E+04 7.18921E+03-1.77809E+05 1.47419E+03-3.63951E+03 2.73469E+03
 -1      1131-4.28720E+03-6.47154E+03-1.15405E+05 5.20516E+02-1.36633E+03 4.61898E+03
 -1      1132-1.11426E+04-5.21915E+03-1.43172E+05 1.87458E+03-6.28378E+03 3.14167E+03
 -1      1133 6.69923E+03 4.82410E+03-1.55412E+05-2.69540E+02-3.61127E+03 2.73128E+03
 -1      1134-3.16632E+03-6.04342E+03-9.58010E+04 9.60495E+02-2.18069E+03 3.67172E+03
 -1      1135-6.80045E+03-5.47093E+03-1.16357E+05 2.03944E+03-4.51698E+03 4.76054E+03
 -1      1136 5.03910E+03 3.71175E+03-1.32553E+05 5.24276E+02-3.53285E+03 2.63004E+03
 -1      1137-3.18375E+03-4.95884E+03-8.11806E+04 4.75751E+02-1.24698E+03 3.84636E+03
 -1      1138-7.27599E+03-3.91509E+03-1.00977E+05 1.57079E+03-4.19275E+03 3.73633E+03
 -1      1139 4.74345E+03 3.23456E+03-1.11466E+05 7.43596E+01-3.07005E+03 2.51019E+03
 -1      1140-1.55875E+03-3.91584E+03-6.47080E+04 6.02251E+02-2.40665E+03 2.55524E+03
 -1      1141-3.92659E+03-4.53719E+03-7.85466E+04 1.26171E+03-3.43923E+03 3.80825E+03
 -1      1142 6.07039E+03 3.59447E+03-9.12851E+04 7.27118E+02-2.51048E+03 2.29814E+03
 -1      1143-4.06632E+03-4.18156E+03-5.87156E+04 1.09511E+03-3.00348E+03 2.76205E+03
 -1      1144-4.24148E+03-2.71263E+03-6.58608E+04 1.17006E+03-4.52467E+03 1.81667E+03
 -1      1145 2.95907E+03 1.49269E+03-7.53688E+04-4.94390E+01-2.47682E+03 2.06872E+03
 -1      1146 1.70096E+02 2.12858E+02-4.08302E+04-4.90301E+02-9.23331E+02 1.37531E+03
 -1      1147-5.22013E+02-2.02761E+03-3.75961E+04-2.89406E+01-2.99168E+03 2.21389E+03
 -1      1148 2.36326E+03 1.18521E+03-6.05225E+04-6.88779E+02-7.54584E+02 2.80745E+03
 -1      1149-1.84899E+03-1.85301E+03-2.98136E+04 2.23786E+02-2.36436E+03 2.30342E+03
 -1      1150-2.67035E+02 3.70924E+02-3.61547E+04 8.75736E+02-3.07844E+03 1.86245E+03
 -1      1151-4.28591E+02-9.12825E+02-4.26514E+04-7.82464E+01-1.31750E+03 2.10417E+03
 -1      1152-7.99029E+02-9.57832E+02-5.47997E+04 9.27741E+02 1.04763E+02 3.06679E+03
 -1      1153 1.12848E+03 2.24354E+02-4.48304E+04 1.77752E+02-1.37221E+03 1.53188E+03
 -1      1154-9.27689E+02-1.31285E+03-2.20290E+04-8.41736E+01-1.39137E+03 1.00292E+03
 -1      1155 3.98260E+02-1.26478E+03-2.09415E+04-7.52723E+01-1.92545E+03 1.33313E+03
 -1      1156 2.04578E+03 1.58507E+03-3.12608E+04-1.70674E+02-1.08990E+03 2.16201E+03
 -1      1157-5.54602E+02-4.98659E+02-1.71738E+04 5.69851E+01-9.35651E+02 1.40744E+03
 -1      1158 2.19054E+02-8.04377E+02-1.70688E+04 1.16918E+02-1.64831E+03 8.01225E+02
 -1      1159 1.42288E+03 1.13451E+03-2.42531E+04 1.20742E+02-1.14669E+03 2.52563E+03
 -1      1160-1.45550E+02-4.64256E+02-7.46429E+03 2.86523E+01-9.01176E+02 8.56692E+02
 -1      1161-5.00718E+02-4.16936E+02-1.05877E+04 2.50434E+02-1.29155E+03 1.08540E+03
 -1      1162 8.78577E+02 3.76007E+02-1.17657E+04 2.25358E+02-6.15850E+02 7.53631E+02
 -1      1163 2.44013E+02-2.16612E+01-1.16360E+04 2.52531E+02-1.28432E+03 7.69216E+02
 -1      1164 6.12125E+02 4.94505E+02-1.79037E+04 2.32167E+02-1.04001E+03 1.05267E+03
 -1      1165 1.30302E+02-5.98250E+01-3.53257E+03-4.08908E+01-7.00844E+02 3.10050E+02
 -1      1166-2.03628E+02-2.34325E+02-5.13742E+03 1.87082E+02-8.91927E+02 8.57812E+02
 -1      1167 6.26433E+02 3.36439E+02-6.48761E+03-8.51666E+01-2.70349E+02 5.87413E+02
 -1      1168 1.21394E+00-2.73303E+01-1.02265E+03-2.27665E+01-2.85805E+02 1.64814E+02
 -1      1169-9.55419E+00-1.51891E+02-1.91591E+03 1.12954E+02-5.44465E+02 3.21912E+02
 -1      1170 6.12245E+02 2.40216E+02-2.53277E+03 7.00781E+00-3.40946E+02 4.09318E+02
 -1      1171 2.84053E+02 7.78644E+01-4.32526E+02-1.75606E+01-1.04454E+02 1.90936E+02
 -1      1172-4.68107E+04-1.92769E+03-3.28251E+05-3.39297E+03 6.50574E+03 3.20497E+04
 -1      1173-4.00925E+04 1.12021E+03-3.16829E+05-2.28249E+03-1.09913E+03 2.57620E+04
 -1      1174-8.63036E+04-2.08831E+03-4.43831E+05-3.73181E+03 6.41798E+03 6.19279E+04
 -1      1175-2.48530E+04-1.44577E+03-2.59371E+05-2.96375E+03 7.49094E+03 1.06319E+04
 -1      1176-1.71805E+04 4.63749E+02-2.39046E+05-5.27218E+02-4.03224E+03 5.04461E+03
 -1      1177-3.83639E+04 4.07770E+03-3.67436E+05-2.94221E+03-2.79778E+03 2.57353E+04
 -1      1178-6.38115E+03-5.34898E+02-2.12945E+05-1.20645E+03 4.73990E+03-5.19307E+03
 -1      1179-5.64805E+03 3.23742E+02-1.95355E+05-1.23314E+02-2.35859E+03-6.94186E+03
 -1      1180-1.01681E+04-2.91170E+03-2.44879E+05 2.60261E+02-2.85005E+02-2.76131E+03
 -1      1181-1.69244E+04 2.64752E+03-3.30345E+05-3.39071E+01 4.84046E+03 2.22253E+03
 -1      1182-5.77692E+03 3.45633E+03-2.93748E+05-2.31303E+03-6.27527E+03-5.47514E+03
 -1      1183-3.06352E+03 6.69523E+02-1.67970E+05-2.88139E+02 4.13010E+03-7.40889E+03
 -1      1184-3.52805E+03-1.43563E+01-1.60302E+05 4.05120E+02-2.20094E+03-7.51648E+03
 -1      1185 5.82153E+02 3.75387E+03-2.26977E+05-1.68726E+03-3.73666E+03-1.34268E+04
 -1      1186-2.66830E+03 6.81936E+02-1.35748E+05-1.75642E+03 2.16719E+03-8.64378E+03
 -1      1187-2.73799E+03-2.15850E+02-1.24978E+05 1.49119E+02-1.33938E+03-8.35347E+03
 -1      1188-7.98086E+02-2.12506E+02-1.54071E+05 6.53472E+02-9.78917E+02-1.02817E+04
 -1      1189-3.93222E+03-7.53920E+02-2.18531E+05-1.62251E+03-9.95942E+02-1.46105E+04
 -1      1190-4.88270E+02 1.11574E+03-1.90722E+05-9.87908E+02-6.73882E+02-1.50474E+04
 -1      1191-2.59775E+03 2.69448E+02-1.00833E+05-8.88689E+02 1.42321E+03-7.07139E+03
 -1      1192-2.24602E+03-6.16876E+02-9.49118E+04 1.67812E+01-1.26124E+03-5.51740E+03
 -1      1193-2.05172E+02 2.11072E+03-1.40087E+05-1.24722E+03-4.57861E+03-1.41387E+04
 -1      1194-3.60479E+01 2.17233E+02-8.31447E+04-9.33647E+01 1.12796E+02-5.98064E+03
 -1      1195-9.16835E+01-7.29495E+02-7.84555E+04 3.29880E+02-3.36476E+03-6.78162E+03
 -1      1196 2.55837E+02 5.82531E+02-1.11064E+05-6.07747E+02-2.00625E+03-1.13007E+04
 -1      1197 1.39855E+03 2.41313E+03-6.43242E+04 1.17189E+02 2.72558E+03-6.19878E+03
 -1      1198 7.85110E+02-3.25248E+01-5.64474E+04 1.35504E+03-3.98924E+03-6.47924E+03
 -1      1199 2.66496E+02-4.96424E+02-7.77950E+04 1.55631E+02-2.12006E+03-8.78081E+03
 -1      1200-7.60825E+02 9.25124E+02-1.12642E+05-3.59722E+02-2.28596E+03-1.27336E+04
 -1      1201 1.13750E+03 7.94273E+02-9.20732E+04 2.57924E+02-1.37605E+03-1.20543E+04
 -1      1202 1.17057E+03 2.00103E+03-4.57158E+04-8.57538E+01 1.21966E+03-5.25923E+03
 -1      1203 1.09210E+03-5.57612E+02-3.95553E+04 1.55026E+02-1.93312E+03-5.72307E+03
 -1      1204 4.08408E+02-9.96209E+02-5.57747E+04 5.14661E+01-1.71601E+03-7.47775E+03
 -1      1205-5.41357E+02 7.93310E+02-8.25500E+04-7.92627E+02-2.05623E+03-1.14729E+04
 -1      1206 1.08957E+03-1.74552E+02-6.60855E+04 6.54549E+01-1.58381E+03-1.02155E+04
 -1      1207 1.16619E+03 1.19088E+03-3.03316E+04-1.58281E+02 1.00109E+03-5.01261E+03
 -1      1208 1.78557E+02 1.81880E+02-2.51575E+04 9.33731E+01-6.35259E+02-4.13391E+03
 -1      1209 5.75509E+02-6.22549E+02-3.89901E+04 2.29371E+02-8.89187E+02-6.72829E+03
 -1      1210-1.01958E+02 8.12356E+02-5.78196E+04-7.77412E+02-1.45612E+03-9.76885E+03
 -1      1211 1.21897E+02 1.18297E+02-4.53549E+04-1.73070E+01-1.39856E+03-8.56316E+03
 -1      1212 1.33848E+02 1.42556E+02-1.79467E+04-1.95790E+02 4.80288E+02-3.35051E+03
 -1      1213 2.67378E+02-9.46005E+01-1.42800E+04 3.75951E+01-5.19162E+02-3.24901E+03
 -1      1214-4.43409E+02 1.45564E+02-2.43537E+04 3.10731E+01-5.14421E+02-4.89127E+03
 -1      1215-6.40372E+02-1.82049E+02-3.53154E+04-2.60618E+02-3.93542E+02-7.80099E+03
 -1      1216-3.11309E+02 1.82184E+02-2.58597E+04-4.54286E+02-1.42688E+03-7.05665E+03
 -1      1217 4.64550E+02 1.16652E+02-7.58909E+03-1.70256E+02 2.57982E+02-2.24693E+03
 -1      1218-1.14297E+02-6.14253E+01-5.85609E+03-4.13729E+01-8.48607E+01-1.92186E+03
 -1      1219-3.04897E+02 3.49364E+01-1.27462E+04 1.34675E+02-1.53300E+02-3.45721E+03
 -1      1220-7.88028E+02-2.17262E+01-1.92869E+04-2.23814E+02-3.37441E+02-5.43373E+03
 -1      1221-2.13450E+02-3.79695E+02-1.15978E+04-3.39620E+02-1.20193E+03-4.81621E+03
 -1      1222 6.07552E+02 7.67242E+02-2.50838E+03 6.99101E+01-2.23151E+02-1.22259E+03
 -1      1223 5.97384E+02-5.19526E+01-2.75127E+02-5.70342E+01 2.32500E+01-1.14490E+03
 -1      1224-6.44859E+02 5.48476E+01-5.70997E+03 6.84945E+01-8.68295E+02-3.12817E+03
 -1      1225-2.88785E+02-9.49900E+01-4.56867E+02 3.43497E+01-2.57964E+02-9.85650E+02
 -1      1226-4.80731E+02 4.38626E+01-1.26590E+03-4.41091E+02 1.15072E+02-2.24799E+03
 -1      1227-6.17927E+02-4.55660E+02 6.15651E+02-5.53044E+01-1.85638E+02-1.78574E+03
 -1      1228-2.80962E+05-1.52019E+05-8.67771E+05 3.83105E+03-5.42756E+04-4.48895E+04
 -1      1229-1.88671E+05-3.85883E+04-7.30454E+05 1.20481E+04-2.24235E+04-6.72081E+04
 -1      1230-1.27526E+05 2.30497E+04-7.60239E+05 2.07720E+04-8.52541E+03-7.44889E+04
 -1      1231-2.52368E+05-4.15325E+04-8.55684E+05 7.84291E+03-4.00812E+04-2.76223E+04
 -1      1232-3.14451E+05-1.69663E+05-9.33941E+05 3.41401E+04-1.95592E+04-1.05525E+04
 -1      1233-1.88648E+05 5.71154E+04-8.33684E+05 8.68628E+03-1.55626E+04-3.52901E+04
 -1      1234-1.97926E+05-1.62187E+04-6.74780E+05-1.27694E+04-5.75456E+03 2.76874E+04
 -1      1235-2.38919E+05-4.57134E+04-8.06245E+05-1.29637E+04-3.19147E+04 1.94399E+04
 -1      1236-2.30129E+05-3.44389E+04-8.41303E+05-1.00874E+04-3.13165E+04 3.98296E+03
 -1      1237-1.97358E+05 3.19088E+03-8.25103E+05-3.46804E+03-2.66082E+04-1.06754E+04
 -1      1238-1.72415E+05 4.03839E+04-7.32374E+05-6.72848E+03-7.98199E+03 1.66729E+04
 -1      1239-1.46898E+05 3.57961E+03-5.20330E+05-1.80596E+04 3.74442E+02 3.96195E+04
 -1      1240-1.54861E+05-1.75243E+03-5.71108E+05-1.15509E+04 8.45866E+03 4.68434E+04
 -1      1241-2.44024E+01 9.52160E+01-4.64308E+02-3.68537E+01-1.38539E+02-3.64162E+02
 -1      1242 1.34547E+02-5.64461E+01-5.02380E+02 2.11388E+01-8.49312E+00-6.87010E+01
 -1      1243 1.73930E+02-5.79906E+01-1.26165E+03-3.24794E+01-2.48988E+02-8.54391E+01
 -1      1244 2.18699E+02 1.12501E+02-3.62896E+02-4.84852E+00-6.34075E+01 1.01149E+02
 -1      1245-2.67501E+02-1.27865E+02-4.46513E+02 6.71716E+01 1.47198E+01-5.60547E+02
 -1      1246-7.99905E+02 1.19345E+02-6.36702E+02-2.31129E+02-5.27203E+01-9.62885E+02
 -1      1247-6.52806E-01-8.78401E+00-1.11533E+03 5.90202E+01-2.43221E+02-7.82910E+02
 -1      1248-6.64521E+02 5.04447E+01-6.31814E+02-8.74629E+01-6.49793E+01-1.33795E+03
 -1      1249-1.21672E+03 1.23947E+02-3.42450E+02-6.92765E+01 2.44714E+00-1.57658E+03
 -1      1250-3.94582E+02 3.54201E+00-1.19970E+03-1.79885E+02-2.75330E+02-1.48576E+03
 -1      1251-1.53247E+03-6.05328E+01 3.59370E+02-2.92709E+02-5.91944E+01-1.29903E+03
 -1      1252-8.09272E+02 1.15455E+02-1.04017E+03-1.20756E+01-3.67370E+02-2.06046E+03
 -1      1253-1.27551E+03 2.59298E+02 1.47431E+02-3.24581E+02 9.39570E+01-1.72595E+03
 -1      1254-1.17010E+03-4.28414E+02 2.17272E+02 1.26268E+02-2.20864E+02-1.48887E+03
 -1      1255-4.25443E+02 1.99451E+02-6.89080E+03 1.48458E+02-6.46285E+02-3.00959E+03
 -1      1256-4.84819E+02-1.50077E+02-2.72862E+03-2.37617E+02-2.68806E+02-2.43476E+03
 -1      1257-1.21945E+02 8.36421E+01-4.40993E+03-1.13963E+02-7.20992E+02-2.36355E+03
 -1      1258-2.53549E+02-1.17528E+02-1.04573E+04-2.52892E+02-6.36046E+02-3.78067E+03
 -1      1259-3.49627E+02-8.30067E+01-8.21133E+03-4.92482E+02-1.17418E+03-3.85834E+03
 -1      1260-1.06529E+02-1.23664E+02-3.32494E+03 2.31633E+02-4.93867E+02-1.86421E+03
 -1      1261-3.53401E+01-2.98628E+01-6.82435E+03-2.65765E+02-7.83569E+02-2.13153E+03
 -1      1262-2.32212E+02-6.17524E+02-1.63910E+04 2.75113E+02-1.21253E+03-4.45065E+03
 -1      1263-4.22009E+01-2.04478E+02-1.32013E+04-2.90556E+02-1.50714E+03-3.38538E+03
 -1      1264 1.08075E+02 2.09690E+02-1.56830E+04-2.78724E+02-6.85594E+02-2.83804E+03
 -1      1265 1.02553E+02 5.12775E+01-1.01757E+04 4.23838E+02-9.41330E+02-2.24426E+03
 -1      1266 4.32996E+02 6.45219E+00-8.25930E+03 1.41796E+01-8.43407E+02-1.70237E+03
 -1      1267-9.01542E+02 1.61770E+02-2.03471E+03 1.88618E+01-5.34983E+02-2.72499E+03
 -1      1268-9.10602E+02-1.07594E+02-5.29834E+03-3.21083E+02-4.55457E+02-3.54197E+03
 -1      1269-7.98719E+02 5.59829E+01-3.36385E+03-9.98990E+01-8.68014E+02-3.10982E+03
 -1      1270-7.54669E+02-2.43518E+01-2.13050E+03-2.05161E+01-4.00457E+02-2.79188E+03
 -1      1271-1.01494E+03-4.41782E+02-9.54766E+03 4.32671E+02-7.78456E+02-4.42172E+03
 -1      1272-5.87102E+02 4.15994E+02-1.37269E+02-3.08076E+02 6.85883E-01-2.20644E+03
 -1      1273-2.05159E+02-2.02731E+02-3.04887E+03-7.35531E+01-7.05341E+02-1.25621E+03
 -1      1274 4.96400E+02 3.38061E+02-8.37316E+04-2.24388E+01-2.89583E+03-5.18113E+03
 -1      1275 4.33729E+02-1.71113E+01-7.92218E+04-4.29930E+02-2.01954E+03-7.06917E+03
 -1      1276-7.08169E+02-8.95954E+02-7.35618E+04 3.74083E+01-2.00893E+03-6.22539E+03
 -1      1277-1.63230E+02 2.54580E+02-8.13840E+04 9.39268E+01-2.18304E+03-3.09876E+03
 -1      1278 4.21775E+02 4.86519E+02-8.67403E+04-3.93049E+02-2.36143E+03-3.75109E+03
 -1      1279 1.84265E+02 1.03799E+02-6.49462E+04-3.70092E+02-1.99745E+03-6.19222E+03
 -1      1280 2.69928E+02 6.32352E+02-6.77731E+04-6.19923E+02-2.58800E+03-4.89296E+03
 -1      1281 4.53634E+02 4.90495E+02-7.15511E+04-3.02837E+02-2.00767E+03-3.29914E+03
 -1      1282 1.44779E+02-1.56771E+02-6.44310E+04 3.14912E+02-1.84674E+03-3.13249E+03
 -1      1283 6.16268E+02 5.31457E+02-7.45337E+04-2.30185E+02-2.80912E+03-1.38506E+03
 -1      1284-7.34188E+02 4.36225E+02-8.72937E+04 2.19487E+02-2.86449E+03-8.32296E+03
 -1      1285 1.56883E+02 3.02802E+02-7.32769E+04-4.37329E+02-2.30384E+03-8.40670E+03
 -1      1286-6.88211E+02 6.22033E+02-9.62635E+04-1.87992E+02-1.92301E+03-8.48424E+03
 -1      1287 8.64956E+02 1.20585E+03-8.66123E+04-6.77607E+02-1.85369E+03-9.70219E+03
 -1      1288-3.66210E+02-3.47111E+01-1.07280E+05 7.22404E+02-2.41217E+03-8.83571E+03
 -1      1289 1.12515E+03 1.11682E+03-1.01620E+05 1.50657E+02-3.81358E+03-6.39924E+03
 -1      1290 6.59706E+02 4.86202E+02-9.10166E+04 6.13482E+01-2.92452E+03-1.59175E+03
 -1      1291-6.84355E+02 2.41192E+01-9.79819E+04 4.82765E+02-2.78574E+03-4.05497E+03
 -1      1292-1.74723E+02 2.15513E+02-1.07403E+05-3.75366E+02-2.27301E+03-4.06820E+03
 -1      1293-1.31571E+03 1.28358E+02-6.14251E+04 4.36709E+02-2.08658E+03-8.18952E+03
 -1      1294 6.69937E+02 1.14059E+03-4.93625E+04-8.09901E+02-2.22044E+03-7.85724E+03
 -1      1295 4.32472E+02 9.60991E+01-5.81230E+04-8.76446E+00-2.60417E+03-7.25715E+03
 -1      1296-3.07628E+02-2.36516E+02-6.33301E+04-6.00594E+02-2.35473E+03-9.64629E+03
 -1      1297-4.07456E+02-3.64527E+02-5.66584E+04 6.00102E+02-2.28471E+03-5.54391E+03
 -1      1298-5.45119E+02 2.53173E+03-2.10077E+05-1.96802E+03-1.26381E+03-1.93238E+04
 -1      1299-1.40868E+03 7.29365E+02-2.46587E+05 1.16423E+03-5.71436E+03-1.82279E+04
 -1      1300-1.34055E+03 2.47018E+02-2.33196E+05 4.03812E+02-3.78759E+03-1.95405E+04
 -1      1301-1.75585E+03 1.63308E+03-1.75381E+05-7.29280E+02-3.35225E+03-1.77909E+04
 -1      1302-9.34989E+02 1.19914E+03-1.90163E+05 1.56605E+03-4.03404E+03-1.84234E+04
 -1      1303-2.03430E+03-2.25062E+03-2.56693E+05-1.33438E+03-4.42699E+03-1.85628E+04
 -1      1304-6.36858E+02 1.82819E+03-2.15128E+05-6.59735E+02-5.45802E+03-1.87285E+04
 -1      1305-3.02130E+03-1.43659E+03-1.61043E+05 2.00574E+03 1.82726E+03-1.55678E+04
 -1      1306-1.44794E+03 1.48730E+03-1.41264E+05-1.42859E+03-3.65043E+03-1.44941E+04
 -1      1307-3.27002E+02 3.08409E+03-1.77879E+05-1.09145E+03-2.34878E+03-1.65876E+04
 -1      1308-2.21459E+03-1.66538E+01-2.02140E+05 6.37216E+02-2.71404E+03-1.75092E+04
 -1      1309-2.28648E+03 7.20230E+02-2.58418E+05 8.80085E+02-3.80809E+03-1.70537E+04
 -1      1310-2.23038E+03-2.28783E+03-2.83234E+05-1.62414E+03-4.34307E+03-1.64277E+04
 -1      1311-7.56636E+02 5.05052E+02-2.70446E+05-1.93442E+02-6.03463E+03-1.47222E+04
 -1      1312-1.18983E+03 7.39778E+02-2.31518E+05-1.36284E+03-3.10811E+03-1.69255E+04
 -1      1313-1.67465E+03-1.43237E+03-2.16803E+05-2.77428E+02-2.28842E+03-1.72202E+04
 -1      1314-1.44539E+03-2.26407E+02-2.30812E+05-1.17412E+03-5.72753E+03-1.49031E+04
 -1      1315-1.07142E+03-6.11333E+02-1.88033E+05-1.47272E+02-5.08203E+03-1.63972E+04
 -1      1316-1.76175E+03 1.43755E+02-1.88165E+05 1.09199E+02-4.14455E+03-1.71335E+04
 -1      1317-1.29211E+03-6.21529E+02-1.59789E+05-8.29793E+02-2.15390E+03-1.72816E+04
 -1      1318-2.03318E+03 9.84568E+02-3.16654E+05 3.65465E+02-6.88397E+03-1.59137E+04
 -1      1319-3.68307E+03 2.59090E+02-3.08698E+05 1.17153E+03-5.07128E+03-1.76493E+04
 -1      1320-2.50606E+03-2.17739E+02-3.21529E+05-1.40907E+03-5.62777E+03-1.77489E+04
 -1      1321-2.85877E+03 2.78059E+02-2.90543E+05 3.67390E+02-6.05390E+03-1.96667E+04
 -1      1322-3.72159E+03 5.54431E+02-2.71356E+05 3.71825E+02-5.59154E+03-1.89614E+04
 -1      1323-2.08655E+03-4.34695E+02-3.54963E+05 7.02024E+02-4.84488E+03-8.34726E+03
 -1      1324-1.71993E+03 7.72115E+02-3.74611E+05-8.22148E+02-5.09030E+03-6.91984E+03
 -1      1325-2.22169E+03-3.80938E+01-3.65670E+05-1.28328E+02-6.69939E+03-1.08482E+04
 -1      1326-1.59306E+03 8.40901E+02-3.38222E+05-1.01249E+03-4.93359E+03-6.73312E+03
 -1      1327 8.63976E+01 7.58263E+02-3.45581E+05-5.82681E+02-6.38791E+03-4.05237E+03
 -1      1328-4.52782E+03-1.12984E+03-3.66496E+05 1.46498E+03-6.60302E+03-1.36546E+04
 -1      1329-1.80235E+03 5.41549E+02-3.42028E+05-1.38554E+03-5.76148E+03-1.30282E+04
 -1      1330-2.04414E+03 2.91362E+02-3.21004E+05 6.74803E+02-5.33182E+03-1.29862E+04
 -1      1331-2.04068E+03 2.42095E+02-3.05986E+05 7.09598E+02-5.69098E+03-1.26542E+04
 -1      1332-1.02575E+03 9.64822E+02-3.27960E+05 6.77109E+02-6.32183E+03-1.07967E+04
 -1      1333-1.32717E+03 6.66792E+02-3.20863E+05 1.48381E+03-5.64910E+03-6.28370E+03
 -1      1334-1.44346E+03 8.41441E+02-3.80138E+05-8.68115E+02-4.84253E+03-3.52212E+03
 -1      1335-3.90466E+03 3.34542E+02-3.94797E+05 5.75202E+02-5.40894E+03-6.63720E+03
 -1      1336-4.03301E+03 7.74509E+02-3.62995E+05 1.31790E+02-4.54109E+03-7.15236E+02
 -1      1337-1.39575E+03 3.45296E+03-3.84398E+05-1.23460E+03-4.34702E+03 1.09205E+03
 -1      1338-9.32907E+01 6.09407E+02-3.44233E+05-3.60758E+02-4.17527E+03-4.82531E+02
 -1      1339-4.06416E+03 1.31765E+03-3.91905E+05-9.55214E+02-7.24500E+03-1.30738E+04
 -1      1340-3.93148E+03 2.51086E+02-3.67051E+05-3.20410E+02-7.77835E+03-1.65039E+04
 -1      1341-5.84105E+03 1.08922E+03-4.15958E+05 1.10195E+03-6.41706E+03-1.22789E+04
 -1      1342-2.79281E+03 2.29518E+02-4.05233E+05-3.15110E+02-5.76229E+03-9.86098E+03
 -1      1343-3.29771E+03-4.82022E+02-4.15602E+05-1.28583E+02-4.10725E+03-6.86014E+03
 -1      1344-2.36449E+02 5.61120E+02-3.69054E+04-4.01021E+02-2.03495E+03-6.88075E+03
 -1      1345-3.49166E+02 2.49157E+02-3.03927E+04 3.78686E+02-7.01133E+02-6.62279E+03
 -1      1346 5.97756E+02 5.72151E+02-3.17878E+04-2.87103E+02-2.32174E+03-6.01522E+03
 -1      1347-1.27076E+03-1.01255E+03-4.52109E+04-1.07208E+02-2.66056E+03-6.75960E+03
 -1      1348-1.57190E+02-8.33068E+02-4.39230E+04 2.37312E+02-1.12807E+03-7.93468E+03
 -1      1349-1.66097E+02 9.83386E+00-3.58417E+04-1.85962E+02-1.86555E+03-4.69449E+03
 -1      1350-2.20043E+02 3.89396E+02-2.91722E+04 2.02513E+02-1.66982E+03-4.56768E+03
 -1      1351 3.82415E+02 3.17018E+02-4.22984E+04 1.70177E+02-2.26026E+03-4.65727E+03
 -1      1352 2.85571E+02-2.10037E+02-4.79726E+04-4.22331E+02-1.94503E+03-5.01936E+03
 -1      1353 3.04858E+02 3.76525E+02-3.87132E+04-4.30680E+00-2.37481E+03-3.77692E+03
 -1      1354-6.60703E+02 1.64424E+02-2.36281E+04 1.58535E+02-1.05623E+03-6.13099E+03
 -1      1355-1.90798E+02 6.98553E+02-2.64072E+04-2.72017E+02-4.91519E+02-6.67076E+03
 -1      1356-7.94379E+02 2.69990E+02-4.31275E+04 7.42882E+02-1.47375E+03-8.18605E+03
 -1      1357-1.11085E+03-5.70910E+01-3.44774E+04-1.07240E+02-1.28950E+03-7.77541E+03
 -1      1358-4.10047E+02 5.29990E+02-3.83932E+04-6.53032E+02-1.06824E+03-8.53873E+03
 -1      1359-4.14792E+02 2.00874E+02-2.33945E+04-2.52895E+02-1.49710E+03-6.76293E+03
 -1      1360-1.67954E+02 3.12696E+02-1.90222E+04-3.29484E+02-1.14140E+03-5.11371E+03
 -1      1361-4.38467E+02 1.44668E+02-1.53484E+04-5.74234E+02-7.39109E+02-5.35272E+03
 -1      1362-2.84988E+02-1.55618E+02-2.26183E+04 2.00233E+01-1.70810E+03-4.55462E+03
 -1      1363 3.05474E+01-5.31127E+02-2.55734E+04-1.28168E+02-1.62559E+03-3.73595E+03
 -1      1364-3.60954E+04 1.36057E+03-4.54285E+05-2.42039E+02-4.92020E+03 8.13942E+03
 -1      1365-2.24746E+04 3.20297E+03-3.82797E+05 1.09122E+01-8.85559E+02 9.36760E+03
 -1      1366-2.62666E+04 6.40140E+01-4.09660E+05-1.39799E+03-4.94434E+03 1.07089E+03
 -1      1367-4.87149E+04 2.88681E+02-4.98554E+05-1.28119E+03-7.69001E+03 1.00960E+04
 -1      1368-5.23061E+04 9.79010E+02-4.81782E+05-2.73169E+02-8.15367E+03 2.19515E+04
 -1      1369-2.28644E+04 6.36375E+02-4.23344E+05-1.16719E+03-3.92188E+03-4.93334E+03
 -1      1370-1.53609E+04 2.44829E+03-3.54355E+05 9.16410E+01-6.98083E+03-4.73964E+03
 -1      1371-3.90911E+04 3.22444E+02-5.24167E+05-1.66418E+03-7.79667E+03-7.39460E+03
 -1      1372-2.89932E+04 1.25625E+03-4.74855E+05-6.88124E+01-6.96547E+03-7.17476E+03
 -1      1373-3.20273E+04-2.12138E+00-5.22834E+05 5.31352E+02-6.83973E+03-1.28047E+04
 -1      1374-4.98272E+04 5.49338E+03-5.78559E+05-7.30327E+02-8.77794E+03-1.05804E+04
 -1      1375-5.16031E+04-1.31433E+03-5.37662E+05 8.57753E+02-8.40565E+03-1.33100E+03
 -1      1376-2.12922E+04-5.06117E+02-4.31169E+05-7.16237E+02-5.51394E+03-9.44843E+03
 -1      1377-7.08924E+04-2.62726E+02-5.62962E+05 9.58227E+01-8.57493E+03 7.15511E+03
 -1      1378-2.46538E+04 4.51473E+03-3.73001E+05-1.31595E+03-3.31982E+03 1.53346E+04
 -1      1379-4.23828E+04 5.03821E+03-4.24510E+05 9.24691E+02-4.42406E+03 2.68622E+04
 -1      1380-5.78451E+04-4.36313E+01-4.72328E+05-7.49892E+02-3.33476E+03 3.26674E+04
 -1      1381-1.46139E+04-2.66781E+02-3.29012E+05 1.51357E+03-1.67063E+03-8.36324E+03
 -1      1382-1.31000E+03 3.75882E+02-7.03864E+04 4.22296E+02-3.09436E+03-1.04211E+04
 -1      1383 1.96121E+01 7.21048E+02-5.42982E+04-4.53907E+02-2.43134E+03-9.65629E+03
 -1      1384-5.74719E+02 6.37465E+02-4.48754E+04-7.15101E+02-1.41429E+03-9.56082E+03
 -1      1385-1.63467E+03-2.98681E+02-4.39740E+04 3.05623E+02-1.92120E+03-9.06440E+03
 -1      1386-4.36424E+02 5.55784E+01-3.12734E+04-4.22486E+02-1.13192E+03-7.74592E+03
 -1      1387 6.67075E+02 3.73484E+02-5.34128E+04-5.93706E+01-2.31472E+03-4.25778E+03
 -1      1388-7.56154E+02 7.59075E+02-9.57824E+04-2.31833E+02-3.53878E+03-1.09704E+04
 -1      1389 6.84800E+02 1.76075E+03-8.12931E+04-1.56364E+02-2.94184E+03-1.05478E+04
 -1      1390-7.56392E+02-8.31141E+02-1.08396E+05 9.56776E+02-3.26271E+03-1.11718E+04
 -1      1391-1.22907E+01 9.54779E+02-9.89314E+04-3.29178E+02-2.38467E+03-1.16021E+04
 -1      1392-1.68568E+02 1.14976E+02-1.16821E+05-3.45976E+02-2.18070E+03-9.14292E+03
 -1      1393-6.12092E+02 1.12378E+03-7.10223E+04-5.76605E+02-2.03134E+03-1.16119E+04
 -1      1394-8.45403E+02-5.50974E+02-1.02444E+05-1.09021E+02-3.63598E+03-1.24826E+04
 -1      1395-2.41863E+02 3.60715E+02-8.53933E+04-5.23603E+02-1.92579E+03-1.22073E+04
 -1      1396-1.08889E+03 6.89140E+02-7.20554E+04-5.61708E+01-1.76384E+03-1.14258E+04
 -1      1397-9.88629E+02 6.39387E+02-7.15522E+04 2.02767E+01-2.93767E+03-1.18611E+04
 -1      1398 1.30326E+02 1.00826E+02-5.64622E+04-7.99513E+02-1.13772E+03-1.06067E+04
 -1      1399 1.24933E+03 8.44324E+02-2.93561E+05-4.92156E+02-6.43615E+03-9.18094E+03
 -1      1400-1.64946E+03 1.10157E+03-2.86294E+05-5.93105E+02-4.33261E+03-1.22804E+04
 -1      1401-1.02035E+03-9.89050E+01-2.65453E+05-3.90986E+01-4.39935E+03-1.23588E+04
 -1      1402-1.04151E+03 5.74814E+02-2.85283E+05 2.68152E+02-4.65942E+03-5.69488E+03
 -1      1403-1.52412E+03 2.48566E+02-3.01586E+05-6.01809E+02-4.49209E+03-5.95269E+03
 -1      1404 9.61580E+02 6.24139E+02-3.07974E+05 4.24066E+02-5.77445E+03-2.17516E+03
 -1      1405-9.94398E+02-6.15722E+02-1.32240E+05-1.59502E+02-2.56393E+03-1.29628E+04
 -1      1406-1.19887E+03-1.20857E+03-1.20635E+05-8.60771E+01-1.94666E+03-1.31368E+04
 -1      1407-9.14107E+02-1.06378E+02-1.30078E+05-8.81351E+02-4.25992E+03-1.13809E+04
 -1      1408 6.75611E+01 7.09239E+02-1.53539E+05-4.09447E+02-4.07451E+03-1.20800E+04
 -1      1409-1.00658E+02 6.66016E+02-1.40607E+05-3.23058E+02-2.78741E+03-1.42520E+04
 -1      1410-1.08992E+02-3.12788E+02-1.41500E+05-8.44976E+02-3.40789E+03-9.47448E+03
 -1      1411-1.36707E+03-6.56430E+02-1.28096E+05 4.13176E+02-3.20221E+03-9.16665E+03
 -1      1412 2.61925E+02 6.76218E+02-1.53723E+05-1.53382E+02-2.69630E+03-9.80011E+03
 -1      1413 3.01564E+02 1.36530E+03-1.60575E+05-8.39102E+02-3.34741E+03-1.04947E+04
 -1      1414 3.17475E+02 3.88445E+02-1.47669E+05-1.14041E+03-4.47972E+03-7.41289E+03
 -1      1415-1.04462E+03 6.43382E+02-1.03604E+05 2.60213E+02-3.09763E+03-1.34212E+04
 -1      1416-4.86147E+02 1.84530E+03-1.42768E+05 1.01108E+02-4.66694E+03-1.47030E+04
 -1      1417-9.02292E+02-1.29425E+03-1.22022E+05-5.87010E+02-2.71912E+03-1.39938E+04
 -1      1418-1.55283E+03 3.38344E+02-1.02511E+05-1.50247E+02-2.39881E+03-1.37865E+04
 -1      1419-6.47633E+02 2.77417E+02-1.01828E+05 3.41596E+01-3.73280E+03-1.41647E+04
 -1      1420-1.21977E+02 5.43510E+01-8.37713E+04-9.02942E+02-1.39247E+03-1.30171E+04
 -1      1421 1.30977E+03 8.79705E+02-1.25448E+05 1.11100E+02-3.62412E+03-6.65933E+03
 -1      1422-6.29977E+03-1.20843E+03-3.54524E+05 1.91462E+03-5.95729E+03-1.80150E+04
 -1      1423-1.42455E+03 1.14437E+03-1.84150E+05 6.37604E+02-4.40825E+03-1.52453E+04
 -1      1424 4.05231E+02-1.32999E+02-1.61515E+05-2.30189E+02-2.85733E+03-1.40248E+04
 -1      1425 1.22236E+03 1.80854E+03-1.75824E+05-9.57892E+02-3.49046E+03-1.26527E+04
 -1      1426-6.24548E+02-1.21066E+03-2.04483E+05 1.46011E+03-4.04298E+03-1.47179E+04
 -1      1427-1.34907E+02 1.71228E+03-1.86191E+05-2.99281E+02-2.69788E+03-1.59336E+04
 -1      1428-1.11591E+03 6.07733E+02-1.92743E+05-1.29597E+02-3.12396E+03-1.09192E+04
 -1      1429-9.59750E+02 4.13093E+02-1.77150E+05 4.75240E+02-3.49736E+03-1.06640E+04
 -1      1430-5.21443E+02-2.38262E+02-2.05659E+05 9.33585E+02-3.23589E+03-1.16204E+04
 -1      1431-2.54571E+02 2.75776E+02-2.14624E+05-3.85879E+02-3.14550E+03-1.21489E+04
 -1      1432 1.03228E+03 1.66353E+03-1.98535E+05 1.52981E+02-4.85752E+03-8.51487E+03
 -1      1433-1.65085E+03 5.69293E+02-1.42129E+05 1.17498E+02-3.20252E+03-1.52169E+04
 -1      1434-2.92488E+02-2.54737E+02-1.62711E+05-6.66558E+02-2.29862E+03-1.62056E+04
 -1      1435-9.80319E+02 9.72966E+02-1.37322E+05 1.40719E+02-2.64658E+03-1.54280E+04
 -1      1436-3.78202E+02 2.27118E+02-1.38000E+05 5.80476E+01-4.61277E+03-1.62066E+04
 -1      1437 3.09808E+02-2.72585E+02-1.15545E+05-9.64068E+02-1.55637E+03-1.50023E+04
 -1      1438 6.18839E+01 2.51158E+02-1.73075E+05-2.05719E+02-4.48139E+03-7.99780E+03
 -1      1439-1.61669E+03 1.77676E+03-2.52944E+05-5.85617E+02-3.20486E+03-1.76221E+04
 -1      1440-2.65763E+03-7.69966E+02-2.61950E+05-1.31452E+03-5.37449E+03-1.86237E+04
 -1      1441-5.54689E+03 5.08614E+02-3.02858E+05 1.03774E+03-2.14369E+03-1.91126E+04
 -1      1442-4.90461E+03 2.06970E+03-2.59420E+05 2.38783E+02-1.62425E+03-1.44353E+04
 -1      1443-4.78962E+03 6.74878E+02-3.45105E+05-1.78521E+03-4.84060E+03-1.86062E+04
 -1      1444-7.35593E+03-5.86577E+02-3.41164E+05 1.42618E+02-3.44272E+03-1.83805E+04
 -1      1445-2.83243E+03 4.56505E+03-2.75647E+05-3.10274E+02-3.09646E+02-1.44525E+04
 -1      1446-1.05596E+04 2.92028E+02-3.83184E+05 3.79192E+02-4.27817E+03-1.74385E+04
 -1      1447-6.26802E+03 2.09043E+03-3.37740E+05-9.65464E+02-2.20030E+03-1.69254E+04
 -1      1448-8.32431E+03 1.89170E+03-3.24303E+05-1.17895E+03-4.09219E+03-1.37210E+04
 -1      1449-2.64045E+03-4.95637E+03-2.26068E+05-7.23884E+02-2.24645E+03-1.69648E+04
 -1      1450-6.53389E+03 1.72596E+03-3.89202E+05-9.54711E+02-6.96478E+03-1.73919E+04
 -1      1451-8.17455E+02-3.93916E+02-2.46938E+05-1.06892E+03-4.47810E+03-1.24862E+04
 -1      1452-2.51329E+03-1.00211E+03-2.29052E+05 5.31689E+02-4.09365E+03-1.23067E+04
 -1      1453 2.79473E+02 4.38844E+02-2.57776E+05-1.55788E+03-6.21131E+03-9.54185E+03
 -1      1454 1.70142E+03 1.53421E+03-2.27288E+05 1.82499E+01-4.64567E+03-8.89973E+03
 -1      1455-5.67323E+03 9.65531E+02-4.19309E+05-7.64385E+02-6.71902E+03-1.50274E+04
 -1      1456-1.06507E+04-2.73121E+02-4.22618E+05 5.41039E+02-7.50420E+03-1.59340E+04
 -1      1457-6.26176E+03-1.27690E+02-4.41853E+05-6.10322E+02-5.89997E+03-1.14157E+04
 -1      1458 2.75842E+02 4.42682E+01-2.88250E+03 3.65922E+01-2.32937E+02 1.07642E+02
 -1      1459 3.10319E+02 1.56524E+02-4.35600E+03 9.69603E+01-5.22724E+02 3.53042E+02
 -1      1460 4.51655E+02-9.29719E+00-6.70154E+03-1.24084E+02-3.24645E+02 3.16625E+02
 -1      1461 2.96399E+02-3.68083E+00-2.85174E+03-3.72089E-01-4.59017E+02-2.95738E+02
 -1      1462-1.51736E+04-2.49584E+02-4.19906E+05-1.75364E+02-6.16672E+03-1.55803E+04
 -1      1463-9.82333E+03 2.14443E+03-4.16256E+05-4.05396E+02-7.63130E+03-1.66805E+04
 -1      1464-1.91112E+04 9.97973E+02-4.63413E+05 4.46975E+02-5.99183E+03-1.47800E+04
 -1      1465-1.70095E+04-4.28913E+02-4.27337E+05-5.94529E+02-4.70143E+03-1.31968E+04
 -1      1466-1.21869E+04-1.26044E+02-4.53000E+05-3.43163E+02-6.30683E+03-1.57258E+04
 -1      1467-1.75484E+04 1.67677E+03-4.87788E+05-3.05776E+01-7.60310E+03-1.52209E+04
 -1      1468-2.48079E+04 1.07067E+03-5.02156E+05-1.13462E+02-7.66075E+03-1.40523E+04
 -1      1469-1.60815E+04 2.78258E+02-4.82565E+05 3.34501E+02-8.01504E+03-1.49770E+04
 -1      1470-1.05677E+04 9.18053E+02-4.76026E+05-3.44552E+02-8.66162E+03-1.43109E+04
 -1      1471-1.95717E+04 1.21348E+03-5.19430E+05-3.19670E+01-6.46527E+03-1.54842E+04
 -1      1472-1.21990E+04 1.34750E+03-3.79018E+05 3.77263E+02-5.88191E+03-1.24960E+04
 -1      1473-5.92772E+02-1.19027E+03-1.29645E+05 6.17243E+02-1.93887E+03-1.32079E+04
 -1      1474-9.22433E+02-5.87375E+02-1.33292E+05 2.52216E+02-2.84406E+03-1.37395E+04
 -1      1475-2.60667E+04 5.53482E+03-5.40459E+05 4.04591E+02-7.42669E+03-1.59844E+04
 -1      1476-4.72426E+04-1.58055E+02-6.08732E+05 8.55968E+02-1.20508E+04-1.82702E+04
 -1      1477-3.38509E+04-1.60358E+02-5.91950E+05 2.06243E+03-9.55133E+03-1.85265E+04
 -1      1478-3.99670E+04 2.76628E+02-6.27318E+05 6.22553E+02-7.93408E+03-2.49586E+04
 -1      1479-6.48799E+04 2.06822E+03-6.26480E+05 1.51207E+03-1.12886E+04-1.58031E+04
 -1      1480-2.75562E+04 1.90177E+03-5.62418E+05 3.96562E+02-6.65082E+03-1.61541E+04
 -1      1481-2.22568E+04-9.40617E+02-5.77948E+05 2.22386E+03-7.58912E+03-1.77463E+04
 -1      1482-2.11817E+04 3.29960E+02-5.43987E+05 9.94900E+02-7.95055E+03-1.57768E+04
 -1      1483-3.82560E+02 5.20104E+02-2.65697E+05-5.73751E+02-4.14451E+03-6.30948E+03
 -1      1484 1.46685E+03 7.44317E+02-2.70102E+05-4.62350E+02-5.23246E+03-2.83010E+03
 -1      1485-9.05339E+02-6.03965E+02-2.50254E+05 1.06537E+02-3.83279E+03-5.93794E+03
 -1      1486-1.64238E+03-1.73584E+02-2.75724E+05-8.63433E+02-3.60304E+03 1.75525E+03
 -1      1487-2.06767E+03 4.07957E+03-2.88701E+05 7.73111E+02-3.09955E+03 1.29715E+03
 -1      1488-2.15169E+03-7.53654E+02-2.58585E+05 5.57489E+02-4.13074E+03-4.14878E+01
 -1      1489-4.22140E+02 5.06006E+03-3.10862E+05-6.29858E+02-7.29640E+02 2.68905E+03
 -1      1490-7.79339E+02 4.15050E+02-9.98665E+04 3.47128E+02-2.71260E+03-1.27839E+04
 -1      1491-5.95190E+02-4.44716E+02-7.07120E+04 3.37786E+02-2.10526E+03-1.08648E+04
 -1      1492-1.39918E+04-3.42639E+03-5.15951E+05 6.95582E+02-7.62659E+03-5.13358E+03
 -1      1493-5.42596E+03 2.22246E+03-5.38980E+05-4.58390E+02-6.83119E+03-8.89510E+03
 -1      1494-5.70554E+03 4.54325E+03-5.03704E+05-4.60467E+02-4.62529E+03-4.63398E+03
 -1      1495-1.37537E+04-8.76316E+02-5.36479E+05-4.94966E+02-5.64107E+03-1.04376E+04
 -1      1496-1.41442E+04-6.78650E+02-5.57584E+05 2.29077E+03-7.43224E+03-1.36326E+04
 -1      1497-6.53626E+03 1.86705E+03-4.98556E+05-3.71305E+02-6.52843E+03-7.32895E+03
 -1      1498-7.39845E+03 2.48723E+03-4.76599E+05 2.61458E+03-6.41179E+03-4.75415E+03
 -1      1499-8.58398E+03 1.36632E+03-4.92383E+05-1.38066E+03-7.36263E+03-1.19057E+04
 -1      1500-1.12590E+04 2.06400E+03-5.17484E+05 1.66955E+02-7.18765E+03-1.11211E+04
 -1      1501-1.52107E+04 3.30942E+03-5.28319E+05 2.84526E+02-8.85975E+03-1.40836E+04
 -1      1502-1.56676E+04 2.48176E+02-5.79305E+05-5.83819E+02-6.13675E+03-1.61256E+04
 -1      1503-7.71230E+03 5.09822E+03-5.68445E+05 1.98544E+03-6.43974E+03-1.06923E+04
 -1      1504-2.01423E+04 4.99444E+02-6.04383E+05 2.13302E+03-6.20884E+03-1.99188E+04
 -1      1505 4.96877E+02-5.67252E+01-4.91855E+04 2.05378E+02-1.59705E+03-3.06886E+03
 -1      1506 2.03728E+02-1.21092E+02-5.76553E+04-2.61970E+02-1.68411E+03-2.87779E+03
 -1      1507 2.21877E+02 2.43327E+02-4.29224E+04-3.50130E+02-1.54785E+03-2.40913E+03
 -1      1508 3.69247E+02 6.57608E+01-4.57561E+04-1.34733E+02-2.35638E+03-1.32289E+03
 -1      1509 3.05198E+02 1.33127E+02-3.54047E+04 5.55346E+02-1.95272E+03-2.35140E+03
 -1      1510-1.48542E+02 8.52174E+01-6.03779E+04-4.70424E+02-2.44866E+03-1.41513E+03
 -1      1511 3.99607E+02-6.09295E+01-4.59606E+04 1.53237E+01-1.70763E+03 4.55264E+02
 -1      1512 8.48336E+02-1.54992E+01-5.37488E+04 9.43564E+01-2.14296E+03-7.78601E+01
 -1      1513 8.47714E+02 2.77907E+02-6.00469E+04-1.19935E+02-2.14739E+03 1.64303E+02
 -1      1514-7.46367E+02 8.70150E+02-4.70731E+04 3.88126E+02-2.66815E+03-9.21941E+03
 -1      1515-8.72850E+02 2.49416E+02-2.40575E+04-6.08090E+02-1.73548E+03-6.83566E+03
 -1      1516-3.07072E+03 1.34450E+02-4.58053E+05-1.51001E+02-7.11220E+03-5.50094E+03
 -1      1517-3.57281E+02 1.37119E+03-4.51072E+05 1.72318E+03-5.49880E+03-2.74010E+03
 -1      1518-7.11479E+03-3.84506E+03-4.28569E+05-1.08225E+03-6.34386E+03 2.27471E+02
 -1      1519-6.52152E+02 4.25347E+02-2.14492E+04-1.25022E+02-7.68107E+02-6.80557E+03
 -1      1520-7.49944E+02 8.02518E+02-1.75969E+04-8.34049E+02-6.69308E+02-6.19449E+03
 -1      1521-1.19448E+03-7.33822E+02-1.28333E+04 2.09964E+02-9.11119E+02-4.94325E+03
 -1      1522-6.10412E+02-5.25911E+02-4.33448E+03-1.55597E+02-4.32350E+02-3.50678E+03
 -1      1523-6.07796E+02-2.45395E+02-7.22666E+03-4.58839E+01 2.59694E+02-3.83725E+03
 -1      1524-1.02216E+03-6.72917E+02-1.20524E+04-2.60016E+02-1.24524E+03-5.45421E+03
 -1      1525-3.66791E+02-3.68761E+02-7.70443E+04-4.38476E+02-1.78768E+03 5.49651E+02
 -1      1526-2.13954E+02-6.34299E+01-8.38294E+04 5.73856E+02-2.14288E+03-1.15848E+02
 -1      1527-3.86716E+02-3.21182E+02-6.84466E+04-2.02807E+02-2.17444E+03 5.19998E+02
 -1      1528-1.87763E+02 4.32004E+02-9.48579E+04-6.08383E+02-2.13416E+03 7.67423E+02
 -1      1529-9.69378E+04 3.72876E+03-7.31498E+05 4.09257E+03-1.10881E+04-5.47987E+04
 -1      1530-1.25070E+05-2.52003E+03-7.35966E+05 3.98198E+03-2.02552E+04-3.37250E+04
 -1      1531-9.05988E+04 2.92823E+02-7.04768E+05 4.41379E+03-1.50910E+04-3.60254E+04
 -1      1532-6.34490E+04-1.81800E+03-7.21744E+05 5.30156E+03-9.19367E+03-5.81844E+04
 -1      1533-9.63819E+04 9.72819E+02-7.46962E+05 6.59305E+03-1.20114E+04-6.23032E+04
 -1      1534-8.00800E+04-2.38410E+02-6.69631E+05 6.52731E+01-1.16749E+04-2.36497E+04
 -1      1535-6.39040E+04-2.11653E+03-6.77130E+05 3.69359E+02-1.29252E+04-3.54274E+04
 -1      1536-4.34864E+04-2.19623E+02-6.46044E+05 1.95273E+03-1.15322E+04-2.85909E+04
 -1      1537-4.06396E+04 3.11471E+03-6.75654E+05-1.12297E+03-9.64650E+03-3.89435E+04
 -1      1538-4.91645E+04 2.50315E+03-6.93029E+05 3.99212E+03-9.74644E+03-4.66603E+04
 -1      1539-2.75657E+04 9.39231E+03-6.62881E+05 1.82507E+03-7.71162E+03-3.72508E+04
 -1      1540-3.75808E+04 1.06195E+03-6.91159E+05 1.13558E+03-1.74343E+03-6.02440E+04
 -1      1541-1.38974E+05 3.10527E+03-7.26300E+05-3.81098E+03-1.38993E+04-1.28630E+04
 -1      1542-1.59069E+05 1.72827E+03-7.67577E+05 3.02489E+03-1.70200E+04-2.66401E+04
 -1      1543-1.46351E+05 1.62084E+02-7.84694E+05 9.95626E+03-1.92797E+04-6.24195E+04
 -1      1544-1.20577E+05-3.48867E+03-7.58285E+05 6.25229E+03-7.43649E+03-7.71632E+04
 -1      1545-1.75945E+05 9.20984E+02-8.08855E+05 1.01521E+04-2.53407E+04-3.55503E+04
 -1      1546-8.77604E+04 8.14654E+02-6.45826E+05-6.28678E+02-1.20987E+04-9.86931E+03
 -1      1547-1.17434E+05 1.74035E+03-6.75867E+05 1.05215E+03-1.57148E+04-2.42285E+03
 -1      1548-8.71655E+04 6.04352E+03-6.15019E+05-1.18201E+03-9.29081E+03 2.31126E+03
 -1      1549-1.46701E+05 7.48437E+03-7.06244E+05-1.47644E+03-1.28518E+04 6.69617E+03
 -1      1550-6.94819E+02-3.94045E+01-1.18979E+05 5.53529E+02-3.14202E+03-4.81913E+03
 -1      1551 3.56776E+02-3.81426E+01-1.30075E+05-1.20833E+02-2.65372E+03-4.21039E+03
 -1      1552 1.05446E+03 5.44772E+02-1.10343E+05-4.33732E+02-3.63232E+03-2.10462E+03
 -1      1553 1.28461E+03 1.52784E+03-1.31515E+05-5.40004E+02-3.48525E+03-2.38627E+03
 -1      1554-1.11018E+02-4.82470E+01-1.41329E+05-8.59344E+01-2.88591E+03-4.44646E+03
 -1      1555-1.16487E+02-8.22413E+01-1.14522E+05-6.04422E+02-2.54172E+03 8.41177E+02
 -1      1556-5.02119E+02-1.81245E+02-1.25127E+05 4.52130E+02-2.68306E+03 2.65433E+02
 -1      1557-8.46770E+02-3.79110E+02-1.04730E+05 5.90189E+02-2.76836E+03 4.27036E+02
 -1      1558-3.59834E+02-2.30934E+02-1.36133E+05-6.06479E+02-2.55966E+03 8.48477E+02
 -1      1559-3.30317E+02 2.09531E+02-1.52343E+05-5.70037E+02-3.21668E+03-5.04234E+03
 -1      1560-4.70670E+03 5.88695E+01-3.93402E+05 1.75550E+03-7.13825E+03 9.10202E+02
 -1      1561-4.46828E+02 1.82776E+03-4.16159E+05-6.56437E+02-6.37200E+03-2.95237E+03
 -1      1562-6.61107E+02 3.19489E+03-4.16007E+05-2.21196E+03-4.76131E+03 2.49612E+03
 -1      1563-4.23425E+03-5.91772E+02-4.34392E+05 4.75700E+02-5.82373E+03-7.11526E+03
 -1      1564-4.00999E+03-3.31940E+03-3.23646E+05 1.08328E+03-5.95669E+03 9.28508E+02
 -1      1565-2.65860E+04 4.17035E+03-6.22405E+05 2.74575E+03-7.43111E+03-2.48379E+04
 -1      1566-1.93761E+04-1.05693E+03-6.20638E+05 1.15881E+03-2.62865E+03-2.37598E+04
 -1      1567 5.73449E+01-2.29624E+02-1.65674E+05 9.71418E+02-3.82975E+03-5.68315E+03
 -1      1568 4.36659E+02 5.89675E+02-1.78804E+05-3.37503E+02-3.98531E+03-5.25667E+03
 -1      1569 1.44090E+03 4.34996E+02-1.56068E+05-1.72459E+02-4.37729E+03-2.40569E+03
 -1      1570 1.64739E+03 1.02765E+03-1.80566E+05-3.89792E+02-4.09632E+03-2.28382E+03
 -1      1571-9.79578E+02 3.42042E+02-1.93026E+05 5.33237E+02-4.05360E+03-5.49774E+03
 -1      1572-9.69211E+02-1.52216E+02-1.60879E+05-7.00092E+02-2.79042E+03 1.10089E+03
 -1      1573-9.59639E+02-2.40777E+02-1.70387E+05 7.59499E+02-2.82486E+03-4.39526E+02
 -1      1574-7.65990E+02-4.33358E+02-1.47623E+05 3.84025E+02-3.21983E+03 1.12457E+02
 -1      1575-7.43075E+02 1.03729E+03-1.87200E+05-1.11824E+03-2.94565E+03 1.06074E+03
 -1      1576-6.27258E+02 4.38729E+02-2.04527E+05-5.60198E+02-3.20983E+03-5.57792E+03
 -1      1577-1.37542E+03 1.38378E+02-2.20441E+05 7.51718E+02-4.22755E+03-6.66882E+03
 -1      1578 1.22755E+02 1.24810E+01-2.34406E+05-2.02678E+02-3.49187E+03-5.81889E+03
 -1      1579 1.38700E+03 9.26789E+02-2.08627E+05-6.42864E+02-5.06335E+03-2.97275E+03
 -1      1580 1.47550E+03 2.21385E+03-2.37521E+05-7.09886E+02-4.65787E+03-3.25431E+03
 -1      1581-7.91383E+02-6.45023E+01-2.13936E+05-9.03329E+02-3.71454E+03 1.23521E+03
 -1      1582-1.49360E+03-2.64583E+02-2.27948E+05 6.01478E+02-3.67978E+03 1.24068E+01
 -1      1583-1.90845E+03-8.28372E+02-2.00739E+05 8.42715E+02-4.24229E+03 2.66741E+02
 -1      1584-1.39232E+03-4.67821E+02-2.43315E+05-9.18904E+02-3.44724E+03 1.19422E+03
 -1      1585-9.54961E+04 4.57864E+03-5.88195E+05 1.25656E+03-9.01900E+03 2.26218E+04
 -1      1586-8.88112E+04 1.06649E+03-5.43960E+05-6.47151E+03-4.94102E+03 3.39387E+04
 -1      1587-7.44954E+04-1.51553E+03-4.85043E+05-3.47912E+03-3.97700E+03 4.41046E+04
 -1      1588-1.18511E+05 6.52259E+01-6.12916E+05-2.87812E+03-7.10388E+03 3.23002E+04
 -1      1589-1.30467E+05-3.01268E+03-5.28985E+05-4.15953E+03 9.74732E+01 5.35765E+04
 -1      1590-1.48408E+05-3.57919E+03-6.26387E+05-1.28491E+03-1.03744E+04 4.25382E+04
 -1      1591-1.53572E+05 4.75185E+03-6.67878E+05-6.39935E+03-9.88326E+03 2.54860E+04
 -1      1592-5.86858E+03-7.98283E+02-4.55178E+05-4.02857E+02-5.76604E+03-9.44005E+03
 -1      1593-8.91089E+03 7.43044E+02-4.67714E+05 1.64158E+03-7.90513E+03-1.16142E+04
 -1      1594 8.14380E+01-3.15446E+02-2.11120E+04 2.60422E+02-1.52533E+03-2.66295E+03
 -1      1595 6.63743E+02 2.40371E+02-1.76225E+04 8.67800E+01-1.18815E+03-1.88583E+03
 -1      1596 2.76839E+01-3.26266E+02-2.82098E+04-4.95497E+02-1.45765E+03-2.47316E+03
 -1      1597 2.72807E+02 2.63068E+01-3.17327E+03 2.16970E+00-4.40611E+02-8.73143E+02
 -1      1598 4.02378E+02-2.03778E+01-5.16487E+03-7.24535E+01-6.42193E+02-7.55755E+02
 -1      1599-2.53488E+04 8.67569E+03-6.32420E+05 3.75574E+03-1.37988E+03-2.50791E+04
 -1      1600-1.35596E+02 2.65781E+01-1.50849E+04 2.24093E+02-1.18973E+03-1.35444E+03
 -1      1601 5.76553E+02 4.72082E+01-1.94734E+04-1.50567E+02-1.06562E+03-8.65255E+02
 -1      1602 4.22924E+02 4.29369E+02-1.88733E+04 1.23785E+02-9.18533E+02 2.56993E+02
 -1      1603 4.88954E+02 1.59666E+02-2.25597E+04-3.94582E+01-1.12995E+03-7.06730E+01
 -1      1604 4.51067E+02-4.68286E+01-3.09088E+04-1.25585E+02-1.78450E+03-1.14760E+03
 -1      1605 1.19746E+02-6.04464E+02-2.71867E+04 3.59598E+02-1.01009E+03-3.26118E+02
 -1      1606 7.70161E+02 4.89423E+02-3.40367E+04-1.68643E+02-1.33328E+03 1.37096E+02
 -1      1607 4.52462E+02 3.31341E+01-2.53760E+04-1.86224E+02-1.14388E+03 7.87640E+02
 -1      1608 3.46304E+02 1.32220E+02-1.05924E+04-1.58621E+02-8.72376E+02-1.37174E+03
 -1      1609 6.70451E+02 3.35846E+02-1.31435E+04 1.76977E+02-1.15912E+03-5.85361E+02
 -1      1610 3.91982E+02-1.63455E+01-7.54751E+03-3.69508E+00-7.28227E+02-1.03321E+03
 -1      1611 3.97248E+02 2.62669E+02-1.24558E+04 6.96755E+01-5.62573E+02 1.83131E+02
 -1      1612 2.19393E+02 7.88636E+01-1.63795E+04 2.38474E+01-8.86896E+02 1.09449E+02
 -1      1613 2.46032E+02 3.07409E+01-7.33818E+03 1.38330E+02-7.78766E+02-4.02650E+02
 -1      1614 2.93660E+02 1.19474E+01-9.28891E+03-1.10508E+02-6.10427E+02 2.37098E+02
 -1      1615 5.10505E+02-2.01831E+02-6.14619E+04-2.68204E+02-1.58065E+03 2.17638E+03
 -1      1616 7.15600E+01 1.86619E+02-3.93462E+04 7.72290E+01-1.76367E+03 5.42820E+02
 -1      1617 6.11610E+02 3.82065E+02-3.27566E+04 3.29885E+02-8.87691E+02 1.11336E+03
 -1      1618 1.20960E+03 1.06557E+03-2.78903E+04 2.86389E+02-1.47325E+03 1.68189E+03
 -1      1619-4.19611E+03-6.29235E+03-1.66645E+04 4.81361E+02-1.17734E+04-1.93672E+03
 -1      1620 2.12833E+02-5.31643E+03 7.70029E+03 1.59783E+04-1.60694E+04 4.09029E+03
 -1      1621-5.16624E+03 1.80763E+03 1.32138E+04 1.03142E+04 1.97453E+04 6.77430E+03
 -1      1622-6.84724E+04-6.24087E+04-1.63070E+05 2.03464E+04 5.59666E+04-3.26884E+03
 -1      1623-8.51597E+04-7.93350E+04-2.05902E+05-3.30548E+03 5.85998E+04 2.21048E+04
 -1      1624-2.27257E+04-2.27114E+04-5.29434E+04-7.04255E+01 3.82349E+04 7.46619E+02
 -1      1625 1.87839E+05 1.59828E+05 4.83805E+05 1.81393E+04 6.02004E+03 3.09193E+04
 -1      1626 8.73895E+04 8.80740E+04 2.07251E+05 6.13764E+02 2.22202E+04 4.05528E+04
 -1      1627-1.46690E+05-1.06543E+05-3.47940E+05-6.33277E+03 1.61649E+04-2.55344E+04
 -1      1628 2.11086E+05 1.65424E+05 5.29410E+05 1.29118E+04-2.24365E+04 1.08548E+04
 -1      1629 1.99879E+05 1.65314E+05 4.90350E+05-6.78163E+03-2.30163E+04 2.61758E+04
 -1      1630-1.94887E+05-1.86212E+05-4.54599E+05-4.14802E+02-5.22371E+04-1.44239E+04
 -1      1631 1.25678E+04 1.25767E+04 2.93104E+04 3.78324E+00-3.95197E+02 7.33658E+03
 -1      1632-1.77003E+05-1.76709E+05-4.13250E+05 6.23847E+01-1.75041E+04-2.15119E+04
 -1      1633 1.53772E+05 1.53500E+05 3.59191E+05-9.18934E+01-2.48982E+04-1.86424E+04
 -1      1634 2.21157E+05 1.94234E+05 5.32659E+05-5.30493E+03-4.81443E+04-1.30617E+04
 -1      1635-1.87867E+05-1.42442E+05-4.90566E+05-1.44614E+04-2.87829E+04 5.57409E+03
 -1      1636 8.09547E+03 1.83720E+04 5.18526E+04 2.69170E+03-3.63181E+04-2.28971E+03
 -1      1637-2.12124E+05-2.11928E+05-4.94828E+05-2.12792E+02-4.84510E+04-4.51226E+03
 -1      1638-7.74338E+04-7.74412E+04-1.80510E+05-1.86556E+01 1.72487E+04 5.75350E+03
 -1      1639 1.10505E+04 1.05900E+04 2.68516E+04-3.64658E+03-1.22511E+04-9.69737E+03
 -1      1640-1.49677E+05-1.15427E+05-3.70934E+05 3.52850E+03-5.67956E+03 8.56172E+03
 -1      1641-1.20460E+03-1.16909E+02 2.13249E+01-9.29362E+02-1.33953E+02-8.59212E+01
 -1      1642-1.11590E+03 1.50216E+01-2.32266E+02-3.41538E+02-1.98509E+02-1.13488E+01
 -1      1643-4.60066E+02 3.84113E+01 1.24033E+02 1.45836E+01-1.00640E+02-7.31224E+01
 -1      1644-7.91555E+01 5.14852E+01-4.82194E+01 9.53038E-01 2.29710E+01 1.09591E+01
 -1      1645-7.54019E+02 6.42112E+01 2.12485E+02-2.42667E+02 2.10277E+01-4.55815E+02
 -1      1646-4.18831E+02 1.07357E+02-1.19707E+02-6.91757E+02 5.96958E+01 2.09940E+02
 -1      1647-4.50714E+02-5.47784E+00-9.41891E+01-2.49344E+01-7.86054E+01-1.06322E+02
 -1      1648-8.40016E+02 5.06394E+01 2.24090E+02-4.96786E+01-5.73736E+01-6.66814E+00
 -1      1649-9.71458E+01 9.33685E+01 1.21925E+02 2.64101E+01-1.86385E+01 5.45351E+01
 -1      1650-1.24907E+03-4.60870E+01-1.78190E+02-2.93869E+02-1.26566E+02-1.89156E+01
 -1      1651-1.28046E+03 6.23117E+01 4.85651E+01-3.63248E+02-1.90357E+02 4.04275E+02
 -1      1652-7.39132E+02 7.62635E+01 1.90756E+02-2.27868E+02-6.62938E+01-2.12702E+01
 -1      1653-6.81831E+02-1.01993E+02 1.34344E+02-3.27334E+02-6.33137E+01-1.19372E+01
 -1      1654-2.41872E+02 7.88773E+01 1.25171E+02-5.27589E+01-1.12294E+02-7.63749E+01
 -1      1655-1.35811E+03-4.62982E+01 2.76860E+02-6.15910E+02 1.76419E+01 5.01476E+02
 -1      1656-6.47223E+02 5.83286E+01-8.77137E+01-6.19327E+02-1.53598E+02 5.69945E+02
 -1      1657-1.57898E+03 1.23823E+02-1.53540E+02-5.01073E+02-5.65629E+01 5.19095E+01
 -1      1658-1.31578E+03 9.05158E+01-7.02636E+01-7.46152E+02-1.67079E+02-3.70222E+02
 -1      1659-1.17103E+03 1.92414E+02 1.06229E+02-5.44165E+02-1.39420E+02-2.36779E+02
 -1      1660-1.41912E+03 1.61214E+02-2.18918E+02-6.48333E+02 4.92853E+01 6.31780E+01
 -1      1661-8.39686E+02 1.20400E+02-9.70557E+01-8.57396E+02 1.32963E+02-1.31510E+02
 -1      1662-1.69735E+03 5.37092E+01-7.76541E+01-7.54266E+02-4.59415E+01-6.93746E+02
 -1      1663-1.88555E+03-3.60112E+03-9.49369E+04-1.02004E+03 1.90549E+02-4.89077E+03
 -1      1664-2.88354E+03-5.53385E+03-1.51961E+04-4.18593E+02-1.50847E+03 6.29800E+03
 -1      1665 4.73861E+02 4.58536E+03-1.63465E+04-1.00904E+02-4.64955E+03 5.52972E+03
 -1      1666-1.32691E+03 9.11380E+02-8.86932E+04 1.14273E+03-1.31121E+03-4.40457E+03
 -1      1667-2.48888E+03-4.24808E+03-1.49473E+04 4.20831E+02-7.38483E+02 5.92084E+03
 -1      1668 8.82990E+02 3.27319E+03-1.86131E+04 9.74424E+01 5.87654E+02 5.85034E+03
 -1      1669-3.01529E+02-1.50205E+03-7.82414E+04-3.42108E+02-4.15422E+02-4.68256E+03
 -1      1670 1.06378E+02-2.20648E+02-2.99352E+03 3.70713E+01-5.84343E+02-9.23060E+02
 -1      1671 2.55210E+02 4.10873E+02-1.51334E+03-9.20133E+01-1.43727E+02 1.56819E+02
 -1      1672-3.02878E+02-8.31739E+02-1.02519E+03-2.33562E+02-8.64658E+02 1.67289E+03
 -1      1673-2.34033E+03-5.84507E+03-2.77390E+04-9.09058E+02-3.60269E+03 6.35633E+03
 -1      1674 1.30672E+03 5.05426E+03-3.13093E+04 1.60187E+02-3.80571E+03 6.64813E+03
 -1      1675-1.26277E+03-8.47417E+02-1.54695E+05-6.91742E+02 1.26904E+03-4.84146E+03
 -1      1676-1.79804E+03-1.76169E+03-1.41912E+04-1.44126E+03-4.14603E+03 4.90777E+03
 -1      1677 4.81434E+02 1.18989E+03-5.98465E+04 3.39864E+02 5.49464E+02-4.88069E+03
 -1      1678-2.26371E+02 1.06576E+03-1.63248E+04-2.27692E+02 1.43345E+02 4.56916E+03
 -1      1679-1.09297E+03-1.02595E+03-1.01097E+04-8.98684E+02-3.21315E+03 4.41557E+03
 -1      1680 3.64906E+02 2.51389E+02-4.35179E+04 3.62010E+02 3.56485E+02-4.06512E+03
 -1      1681 1.00621E+02 7.48468E+02-1.16112E+04-7.00634E+01-2.79763E+02 3.90405E+03
 -1      1682-7.69443E+02-1.49776E+02-3.91280E+03 4.94951E+01-2.39104E+02 1.47771E+03
 -1      1683-2.38827E+02-3.19123E+02-1.64214E+03 5.43677E+01-1.61271E+02 1.13080E+03
 -1      1684 7.27060E+02 1.03296E+03-3.80253E+04 1.39249E+03-2.99060E+03-4.23506E+03
 -1      1685-9.08246E+02-1.79079E+02-3.41125E+02-2.18194E+02-1.96509E+02-8.07613E+02
 -1      1686 6.04817E+02 1.66968E+03-7.31280E+04 5.34059E+02-3.00267E+03-5.23833E+03
 -1      1687-8.21029E+04 3.27773E+04-3.44622E+05-5.04952E+03-6.20767E+03 1.06950E+04
 -1      1688-1.78476E+03-4.62517E+02 9.58676E+03 3.22692E+02-6.15384E+03-4.30915E+03
 -1      1689-9.98761E+02-1.17090E+03 1.35739E+04 7.67705E+01-6.78867E+03-4.33852E+03
 -1      1690 2.53143E+02-8.97356E+02 4.88664E+03 3.74263E+02-6.29495E+03-5.12719E+03
 -1      1691-3.48121E+03-1.15891E+02-1.50091E+05 1.32606E+03-2.44927E+03-6.03379E+03
 -1      1692 1.14866E+03 9.91221E+02-5.32248E+04 6.37248E+02-2.76502E+03-5.32368E+03
 -1      1693 8.35257E+02-1.15975E+03 1.88499E+04 4.98257E+02-6.56327E+03-4.00736E+03
 -1      1694-2.27810E+02-3.78259E+02 1.86842E+04 1.18315E+02-5.54942E+03-3.14834E+03
 -1      1695-9.19774E+02-4.27163E+02 1.03913E+04 8.62759E+01-5.92400E+03-4.05035E+03
 -1      1696-1.25434E+05-1.98169E+04-4.26491E+05 1.32686E+04-2.54375E+04-1.65605E+04
 -1      1697-1.13440E+05 5.06633E+03-4.30051E+05 1.36029E+04-1.46328E+04-7.59167E+03
 -1      1698 1.02306E+05-1.43393E+03 4.48328E+05 2.54880E+04-2.07839E+04 1.78833E+04
 -1      1699-5.33310E+03-2.43969E+03 1.86742E+04 2.22249E+04-2.79351E+04 8.72467E+03
 -1      1700 6.55406E+02-5.80497E+03 3.40565E+04 1.93826E+04-2.28635E+04-6.08332E+03
 -1      1701-4.11368E+02-1.56970E+01 6.26254E+02 2.68309E+01-4.40361E+02-4.26857E+02
 -1      1702-5.07969E+02-1.08012E+02 6.85787E+02 8.80368E+00-5.28563E+02-4.88065E+02
 -1      1703-9.83216E+02-2.47547E+01 7.68198E+02-1.02291E+02-4.14876E+02-1.20437E+02
 -1      1704-7.45139E+02-6.00106E+01-4.58664E+02-1.26096E+02-2.05147E+02-4.68056E+02
 -1      1705-5.31427E+02 6.78932E+01-6.15158E+02-1.06877E+02-1.82642E+02-3.26405E+02
 -1      1706 5.30204E+02-1.01659E+03-3.51162E+03-2.18047E+02-5.63119E+03-6.00844E+03
 -1      1707-2.44947E+03-2.31974E+03-6.34810E+04 6.84364E+02-5.71517E+03-5.44944E+03
 -1      1708 4.96369E+02-1.83044E+02 5.48937E+03-1.29807E+03-6.91604E+03-2.43034E+03
 -1      1709-2.22005E+03-2.46297E+03-5.43729E+04-4.24254E+03-5.70393E+03-4.79276E+03
 -1      1710-1.07951E+02 5.21354E+00 6.33275E+03-2.39439E+01-3.10291E+03-1.83780E+03
 -1      1711 5.18066E+01-4.23505E+02 6.74286E+03 2.27278E+02-3.44580E+03-2.21535E+03
 -1      1712-9.86538E+02-4.41959E+02 3.02001E+03-5.28419E+01-3.40964E+03-2.34622E+03
 -1      1713-1.35119E+03 2.65852E+01 2.16893E+03 4.17411E+01-3.04497E+03-1.09393E+03
 -1      1714-8.09504E+02-1.78761E+02 3.23365E+03-4.94605E+01-2.80982E+03-1.44904E+03
 -1      1715-3.77528E+02-3.90844E+02 6.70638E+03-2.37064E+02-2.30953E+03-7.54532E+02
 -1      1716-3.41098E+02-9.23252E+01 2.23559E+03-1.47427E+02-2.72177E+03-1.16486E+03
 -1      1717-6.12991E+02 3.00456E+01 6.18520E+03-1.25309E+02-2.30480E+03-8.23059E+02
 -1      1718-3.60688E+02-4.11447E+02 2.45403E+04 1.45125E+02-5.79149E+03-5.88971E+02
 -1      1719-1.82401E+03-4.15242E+02 1.26976E+04-1.10280E+02-6.14265E+03-1.06467E+03
 -1      1720 3.54422E+02 1.88880E+02-1.68523E+04 2.20906E+00-1.78286E+02-2.55566E+03
 -1      1721-5.93481E+01 6.49377E+02-5.82802E+03-3.63200E+02-1.33300E+03 1.76392E+03
 -1      1722-7.68701E+02-1.28135E+03-1.66257E+03-8.02024E+02-1.30357E+03 3.61009E+03
 -1      1723 8.50577E+04-3.40094E+04 3.64278E+05-1.21620E+04-6.33526E+03-1.31838E+04
 -1      1724-3.13523E+02-1.76050E+02 1.14268E+04-2.74931E+02-4.61936E+03-3.06625E+03
 -1      1725 6.30615E+02-4.00930E+01 1.31518E+04 1.62177E+02-4.29024E+03-5.43474E+02
 -1      1726-6.37033E+02-3.44678E+02 7.44081E+03-2.07628E+02-4.54862E+03-1.01958E+03
 -1      1727-1.65202E+03-3.50162E+02 6.00879E+03 1.49795E+02-4.64281E+03-3.51601E+03
 -1      1728-2.28016E+02-5.06064E+02 3.48689E+03 4.67702E+01-2.62959E+03-2.05263E+03
 -1      1729-6.45004E+01 1.31924E+02 5.40849E+03-1.47238E+02-2.60482E+03-8.65996E+02
 -1      1730-8.01935E+02 1.40330E+02 1.15665E+03 1.37732E+02-2.86522E+03-1.02974E+03
 -1      1731-5.87107E+02-1.48289E+02-1.13380E+02-5.63061E+00-2.56027E+03-2.17642E+03
 -1      1732-9.32637E+02-5.11994E+02 1.17458E+04 1.82158E+02-7.21584E+03-4.75140E+03
 -1      1733-1.41236E+03-3.90516E+01 2.42778E+04 1.28650E+02-7.66250E+03-4.41520E+03
 -1      1734 5.02078E+02-1.05647E+03 4.27774E+04-1.58565E+02-7.75854E+03-1.75543E+03
 -1      1735 2.31128E+03 7.81502E+02 3.58857E+04 8.25226E+02-7.15432E+03-1.83911E+03
 -1      1736 9.39584E+04-3.57380E+04 4.71451E+05 1.70941E+04-2.56128E+04 8.49534E+03
 -1      1737-5.44062E+02 5.51126E+02 1.27183E+03 1.31168E+02-2.24181E+03-1.64066E+02
 -1      1738-9.09358E+02 4.37359E+02 4.11478E+02-4.71115E+01-2.15988E+03-6.75801E+01
 -1      1739-4.71786E+02-4.77987E+01 3.35174E+03-1.57366E+02-2.52058E+03-1.72032E+02
 -1      1740-8.44602E+02-6.63033E+01 1.26404E+04-6.24396E+00-5.42469E+03-3.24110E+03
 -1      1741-2.11143E+03 7.39032E+01 9.56523E+03 8.89106E+01-5.77913E+03-2.43759E+03
 -1      1742 9.94069E+02-3.63334E+03 2.88334E+04 5.35606E+03-2.22124E+04-8.25971E+03
 -1      1743 1.08766E+04-2.54989E+03 5.61478E+04-1.41871E+03-1.91933E+04-2.37598E+03
 -1      1744-8.09556E+02-6.26276E+02 4.98775E+04 4.20518E+03-1.76497E+04 3.98838E+03
 -1      1745-5.68841E+03 1.13870E+03 2.93835E+04 7.49868E+03-1.79878E+04-3.21638E+03
 -1      1746-5.85346E+02-9.86906E+02 1.82459E+04-1.04976E+02-6.88491E+03-2.55125E+03
 -1      1747 9.55746E+02 5.71974E+02 2.71184E+04 2.81678E+02-6.38534E+03-2.22004E+03
 -1      1748-1.79849E+02 2.23032E+03-5.48518E+03-4.33325E+02-4.21107E+03-3.63986E+03
 -1      1749 1.48398E+02 9.74465E+02 1.34994E+04-4.80462E+02-4.31041E+03-2.63790E+03
 -1      1750-8.52335E+02-2.42186E+02-8.53916E+03 1.04146E+02-4.19482E+03-3.92933E+03
 -1      1751 1.01904E+04-3.58379E+03 4.58408E+04 4.79775E+03-1.41899E+04-4.86800E+03
 -1      1752-3.69730E+03 6.22366E+01 5.91360E+03 4.78434E+03-1.00684E+04-1.72548E+03
 -1      1753-2.44771E+03-5.40684E+03-1.95802E+04 7.28948E+03-9.42747E+03-1.58966E+03
 -1      1754-1.02842E+02-1.66961E+01-7.03066E+01-2.66439E+00-3.93538E+01-4.63746E+00
 -1      1755-8.24138E+02-6.66252E+02 1.68898E+03-4.14682E+01-5.04554E+03-3.94841E+03
 -1      1756 2.50221E+02 9.10371E+02 1.40088E+04-5.53038E+02-4.88573E+03-3.36792E+03
 -1      1757-1.45146E+03 7.45878E+02 8.36534E+03 1.11155E+03-5.89597E+03-3.96592E+03
 -1      1758-1.33752E+03-9.92048E+02 2.31440E+04-2.85101E+01-7.55098E+03-3.97926E+02
 -1      1759 1.06038E+02-3.03780E+02-2.93025E+04 2.85767E+02-3.33786E+03-3.41619E+03
 -1      1760-1.80217E+03-1.23495E+02-3.99027E+04-2.12665E+03-5.31968E+03-4.75308E+03
 -1      1761-6.77757E+02-5.49230E+01 4.70585E+03-2.04762E+02-4.08912E+03-2.18688E+03
 -1      1762 2.25875E+02-2.14605E+02-1.58107E+04 1.39445E+02-2.67979E+03-2.62180E+03
 -1      1763 1.19663E+02 3.66459E+02 8.34082E+03-3.10535E+02-3.68403E+03-2.45974E+03
 -1      1764-9.77084E+02 5.66545E+02 4.04933E+03 6.11615E+02-4.34610E+03-2.91721E+03
 -1      1765-7.25740E+02 1.56156E+02-2.36895E+04-1.29485E+03-3.92661E+03-3.40516E+03
 -1      1766 2.73052E+02-8.76772E+01 4.02402E+04-3.37952E+02-5.63095E+03-1.68829E+03
 -1      1767-7.43966E+02 1.32945E+02 3.07379E+04-1.41009E+02-6.37327E+03-2.35456E+03
 -1      1768 1.38197E+03-4.05708E+03-2.93919E+04-7.29421E+01-6.40356E+03-5.16050E+03
 -1      1769-3.92375E+02-2.77211E+03-4.15291E+04 1.12471E+02-5.70598E+03-5.22310E+03
 -1      1770-2.91889E+02-7.84445E+01 7.28426E+03-4.70530E+02-5.77199E+03-3.95800E+03
 -1      1771-1.31225E+03 4.06133E+02-4.51679E+04 4.95518E+02-4.29181E+03-3.18841E+03
 -1      1772 1.39669E+03 1.59143E+03 1.94588E+04-1.13342E+03-6.84859E+03-4.16535E+03
 -1      1773-8.81984E+01 5.95634E+02-2.48793E+04 2.10748E+02-3.96318E+03-2.32026E+03
 -1      1774-8.19952E+02-1.06291E+01 2.90398E+02-4.12115E+02-2.90641E+02 1.10164E+03
 -1      1775 5.50489E+02-1.36967E+03 2.70969E+04-4.42154E+02-7.18171E+03-4.77500E+03
 -1      1776 4.96377E+03 3.96742E+03 4.41790E+04-1.88156E+03-3.19097E+04 3.40535E+03
 -1      1777 1.68651E+01 2.68530E+01 9.20171E+03 5.72910E+01-3.19824E+03-3.45904E+02
 -1      1778-9.37350E+02-1.76944E+02 3.08213E+03-1.60209E+02-3.27498E+03-3.40691E+02
 -1      1779-7.35951E+02-3.17545E+02-1.03518E+04-1.88739E+02-2.56671E+03-2.03797E+03
 -1      1780-6.02031E+01 5.06080E+02 2.46738E+03-9.90738E+01-2.46849E+03-2.16224E+03
 -1      1781 3.98567E+02 3.81360E+02-9.32010E+03-4.03211E+02-2.65185E+03-1.87168E+03
 -1      1782-4.16631E+02 8.14590E-02-5.88084E+02-9.76441E+00-8.70134E+02-7.21822E+02
 -1      1783-3.95261E+02 1.02743E+02 9.87830E+01 1.93673E+01-8.67079E+02-5.35164E+02
 -1      1784-2.59385E+02 4.87416E+02-8.99903E+01-3.79702E+01-9.54528E+02-4.93714E+02
 -1      1785-3.44903E+02 3.13754E+02-1.74944E+02-2.29026E+02-1.04005E+03-7.45054E+02
 -1      1786-2.37040E+02-3.71866E+02 1.95500E+03 7.81265E+00-1.18333E+03-6.86870E+02
 -1      1787-3.73192E+02-1.18747E+02 1.97983E+03 2.71372E+01-1.28371E+03-7.71838E+02
 -1      1788-3.35179E+02-5.32691E+02 3.17713E+03-4.09252E+02-5.20102E+03-5.19678E+03
 -1      1789-1.62542E+03 3.16350E+02-7.09025E+03-2.45411E+02-6.67763E+03-6.00541E+03
 -1      1790-7.56867E+02 2.74650E+02 1.60322E+04 9.53577E+02-6.44392E+03-2.30253E+03
 -1      1791 1.22439E+03 4.86150E+02 2.54995E+04 1.96214E+02-6.43116E+03-1.36674E+03
 -1      1792-6.98229E+02-2.78679E+02 1.53958E+04-1.56341E+02-4.70856E+03-7.20586E+02
 -1      1793-1.43918E+02 1.68091E+03 7.45061E+02-1.12171E+03-5.18129E+03-3.41305E+03
 -1      1794 1.03936E+02 9.61471E+02 1.28633E+03-7.52214E+02-3.72265E+03-2.55019E+03
 -1      1795-1.02239E+02 8.66042E+01-1.50877E+04 2.42612E+01-3.30556E+03-2.54158E+03
 -1      1796-2.92105E+02 5.00974E+02-2.29466E+02-3.04200E+02-3.10969E+03 7.29440E+02
 -1      1797-2.23123E+02 5.53478E+02-2.89642E+03-2.70799E+02-2.00962E+03 4.16503E+02
 -1      1798-7.54877E+02-1.32891E+03 1.20555E+04-5.01927E+02-5.24316E+03-2.26351E+03
 -1      1799-6.46667E+02-4.29647E+02 1.36429E+04 6.09828E+01-5.74624E+03 1.89688E+02
 -1      1800-1.07747E+03-1.33741E+03 1.61588E+04-8.03644E+02-5.95059E+03 3.59374E+02
 -1      1801-2.35727E+01-1.00485E+02 2.06765E+04 2.30449E+00-5.13423E+03-2.04766E+03
 -1      1802-5.39692E+02-5.29230E+01-1.27823E+04 2.44307E+02-5.50242E+03-5.12171E+03
 -1      1803-2.81971E+02 2.94657E+01 6.89182E+03 5.44523E+01-2.93590E+03-1.05731E+03
 -1      1804-4.42240E+02-3.39098E+02 7.57818E+03 1.76547E+02-2.92951E+03-1.28847E+03
 -1      1805-8.04955E+03 2.26764E+03-2.23412E+04 1.09341E+04-1.17521E+04-5.35264E+02
 -1      1806-7.18054E+02-4.90121E+02 2.73337E+02-2.52242E+01-3.80575E+03-3.12123E+03
 -1      1807 2.08638E+03-1.49621E+02 2.92172E+04 6.75520E+02-6.91924E+03-4.80737E+02
 -1      1808 1.33716E+03-6.94649E+02-2.43902E+03 1.17868E+02-5.93760E+03-4.86871E+03
 -1      1809 4.66038E+01-5.32670E+02 9.50775E+03 5.46324E+02-5.47058E+03-3.45066E+03
 -1      1810 1.49566E+04-2.44912E+03 5.90739E+04 8.77023E+03-2.71425E+04-6.67250E+03
 -1      1811-5.32093E+02 1.09394E+01-4.46074E+03 1.88645E+02-2.79062E+03-2.81087E+03
 -1      1812-6.91974E+00 1.25035E+03-3.52514E+03-2.35735E+02-2.91478E+03-2.46238E+03
 -1      1813-1.63585E+01 3.70536E+02 7.09604E+03-3.17282E+02-3.01361E+03-1.77270E+03
 -1      1814 9.19962E+01-6.86907E+03-7.98713E+04 3.27885E+03-6.11409E+03-4.44120E+03
 -1      1815-4.76447E+02 1.02379E+03-7.00220E+04 4.96151E+03-1.87663E+03-7.29086E+03
 -1      1816-6.83177E+03-3.74997E+03-9.54142E+04 1.57983E+03-9.60825E+03-8.95868E+03
 -1      1817-7.91218E+02-1.12688E+03-2.45204E+04 2.04939E+02-3.67244E+03-3.89345E+03
 -1      1818 1.88689E+01-4.09079E+02 3.87837E+03-1.72587E+02-4.59059E+03-3.38335E+03
 -1      1819-2.00220E+02-7.11633E+02 3.34231E+03-3.14069E+02-4.24449E+03-4.44466E+03
 -1      1820 2.59181E+03 6.70213E+02-1.31872E+04-4.67160E+03-4.51007E+03-4.01258E+03
 -1      1821-6.16939E+02-5.63586E+02-7.30039E+04-3.41999E+03-8.48286E+03-6.61236E+03
 -1      1822 5.87328E+03 2.36432E+03-9.60119E+04 8.88615E+02-8.86956E+03-3.97505E+03
 -1      1823-6.21790E+02 3.62207E+01-3.62329E+02-3.07901E+01-1.55085E+02-2.17844E+02
 -1      1824-4.59780E+04-1.10081E+05-1.67213E+04-1.02765E+04-2.08094E+04-2.13689E+03
 -1      1825 3.12534E+03 1.70335E+03 3.71114E+04-6.30693E+03-2.59464E+04-6.50338E+03
 -1      1826-1.05573E+05-5.09985E+03-4.10283E+05-7.47863E+03-1.76114E+04 8.61971E+03
 -1      1827 1.13914E+05 3.40552E+03 4.41722E+05-1.02848E+04-2.11869E+04-5.46082E+03
 -1      1828-6.90323E+02-4.81714E+02-1.33325E+04 1.26027E+02-2.72702E+03-2.73507E+03
 -1      1829 4.40540E+01-2.45994E+02 1.26419E+03-2.24491E+02-3.23153E+03-2.33526E+03
 -1      1830-1.81938E+02-4.48251E+02 2.68916E+03-1.67876E+02-3.12768E+03-3.12022E+03
 -1      1831 3.26046E+02-3.12103E+02-2.08550E+01-3.83827E+01-2.92282E+03-2.54629E+03
 -1      1832 1.33130E+02 1.62087E+02 1.72798E+03-2.30771E+02-2.32083E+03-2.05152E+03
 -1      1833-6.11202E+02 4.33120E+02 6.91446E+01-1.10690E+02-2.36109E+03 1.03293E+03
 -1      1834-1.66813E+03-6.23589E+03 1.00551E+04 4.28595E+03-7.93162E+03-4.90304E+03
 -1      1835-8.81579E+01 3.03568E+03-2.54072E+04 5.80371E+01-4.03597E+03 5.49572E+03
 -1      1836-2.15302E+03 1.15795E+03-1.17672E+05 1.88863E+03-2.53145E+03-6.82527E+03
 -1      1837-9.88273E+02 9.83862E+02-1.26044E+05-5.72533E+02 7.95617E+02-6.61459E+03
 -1      1838-3.30576E+02 4.29906E+02-2.27105E+04-1.25409E+03-4.49072E+03-4.36163E+03
 -1      1839 5.96593E+01 1.02026E+03 4.37198E+03-9.78924E+02-4.72870E+03-2.83744E+03
 -1      1840 1.97988E+02 1.94548E+02 4.31332E+03-3.59215E+01-2.10901E+03-8.03486E+02
 -1      1841-3.31561E+02-1.56891E+02 2.66403E+03-1.25925E+02-1.98530E+03-1.85349E+03
 -1      1842-5.28557E+02 1.69207E+02-9.84359E+02-4.06070E+01-2.51561E+03-2.05054E+03
 -1      1843-3.57930E+02 5.06273E+01 7.30662E+02 3.70565E+02-2.40246E+03-9.69128E+02
 -1      1844 7.68149E+03 6.24976E+03 2.02363E+04 5.04266E+03-2.24415E+03-3.93582E+03
 -1      1845 1.01303E+04 3.25766E+03 3.79474E+04 6.13722E+03-2.43434E+03-4.94805E+02
 -1      1846 7.43117E+03-4.79439E+03-7.33949E+04 7.78589E+02-2.15334E+03 3.33346E+03
 -1      1847-1.30216E+04-7.66183E+03-1.06011E+05 5.07267E+03-5.80670E+03-1.93233E+04
 -1      1848-9.37129E+01 3.78832E+02-1.27491E+04-6.52892E+02-3.14593E+03-2.83301E+03
 -1      1849 5.22870E+00 4.88562E+02 2.83841E+03-5.07812E+02-3.40309E+03-2.09742E+03
 -1      1850-1.17154E+02 8.35195E+01-7.20371E+03-3.26944E+01-2.48762E+03-2.02976E+03
 -1      1851 2.82803E+02-1.77505E+03 1.15717E+04 4.02108E+03-9.07566E+03-6.62012E+03
 -1      1852-7.26390E+02 4.07999E+02 9.90830E+02-3.02558E+01-2.16579E+03-1.20344E+03
 -1      1853 1.46554E+03-2.72177E+03 2.84796E+04 4.66087E+02-8.49145E+03-4.03496E+03
 -1      1854-3.25384E+02 5.95083E+02 2.67446E+04 1.50313E+03-9.82333E+03-4.00418E+03
 -1      1855-1.21429E+03 1.30953E+03 1.14477E+04 8.06752E+02-8.49992E+03-5.15337E+03
 -1      1856-1.24182E+03-7.97320E+02 9.82162E+03 1.25846E+03-6.87554E+03-5.01836E+03
 -1      1857-1.68544E+03 2.49256E+02 1.77303E+04-9.70992E+01-6.01809E+03-3.25439E+03
 -1      1858-1.10716E+03-7.84972E+01 7.86427E+03 7.26714E+01-4.04153E+03-2.63438E+03
 -1      1859-9.97381E+02-3.71993E+02 1.47499E+04-2.48809E+02-9.03483E+03-4.39113E+03
 -1      1860-1.39071E+03 3.57305E+03-6.72707E+03 4.71508E+02-6.12267E+03-3.47852E+03
 -1      1861 1.87440E+03 3.56264E+02 3.10095E+04 5.81399E+02-6.99761E+03-2.48888E+03
 -1      1862-1.08120E+03-7.58053E+02 3.23202E+04-2.03733E+02-7.28741E+03-3.02553E+03
 -1      1863-6.37162E+02-1.47501E+02-4.11965E+03-2.04832E+02-3.65441E+03-3.52167E+03
 -1      1864-1.09328E+02-4.10398E+02 6.02672E+03 3.79458E+02-4.04477E+03-2.66008E+03
 -1      1865-1.95982E+02 1.89399E+03-1.33869E+03-2.23409E+02-3.69200E+03-2.85675E+03
 -1      1866 1.81086E+03-2.41342E+03-8.77248E+04 5.63290E+02-5.78451E+03-6.62348E+03
 -1      1867 3.98143E+02-7.52644E+02-6.90092E+04-1.04010E+02-6.37676E+03-2.24238E+03
 -1      1868 5.88038E+04 9.70818E+04 4.43951E+04 2.22221E+04-1.31159E+04-1.80918E+03
 -1      1869 7.58749E+02 1.42765E+03-9.04822E+03 7.91987E+01-1.92373E+03-2.27516E+03
 -1      1870-2.38924E+02 7.54264E+02-9.78341E+03-3.58297E+02-2.05232E+03-1.17783E+03
 -1      1871 8.47239E+03-1.06682E+04 3.73591E+04 1.46185E+04-1.55345E+04-3.41483E+03
 -1      1872-1.31918E+04 9.03049E+03-2.67461E+04 1.81399E+04-1.20928E+04-3.00194E+03
 -1      1873-8.40195E+02-2.93077E+02-6.17291E+03-3.67742E+02-4.99150E+03-4.82806E+03
 -1      1874-4.23687E+02 3.16486E+03-8.09296E+02-3.23928E+02-5.12273E+03-4.07794E+03
 -1      1875-7.06048E+02-1.44498E+02 5.52743E+02-3.67980E+01-4.06405E+02-5.46723E+01
 -1      1876-1.06257E+03 9.84058E+01 6.71528E+02-7.05235E+01-2.00068E+02 3.70587E+02
 -1      1877-6.97861E+03 6.66036E+03 3.60251E+04-3.20239E+03-1.95653E+04 2.63988E+03
 -1      1878 2.63434E+01-3.75523E+02-4.56820E+03-3.47596E+02-2.27506E+03-1.75299E+03
 -1      1879 1.29075E+02-2.99552E+02 4.33686E+03 9.90865E+01-2.35094E+03-1.85370E+03
 -1      1880-3.70406E+02-6.63490E+02 2.61891E+04-2.37278E+02-6.15662E+03-2.99206E+03
 -1      1881-1.23239E+03-1.98413E+03 2.70071E+04 7.71609E+02-8.19036E+03-2.57499E+03
 -1      1882-2.51147E+02-1.22462E+01 6.92327E+02 1.02926E+02-1.31868E+03-8.40198E+02
 -1      1883 3.88855E+02 2.70544E+02 9.70343E+01-1.40058E+02-1.28606E+03-9.90747E+02
 -1      1884-1.92645E+02-1.44220E+02 2.51597E+02-7.38361E+01-1.15524E+03-1.24137E+03
 -1      1885-1.94608E+02 1.90362E+02-1.93840E+03-7.73735E+01-1.19244E+03-1.05212E+03
 -1      1886 1.18534E+03-1.97775E+01 1.50533E+04 4.86685E+02-6.66700E+03 3.78134E+02
 -1      1887-8.96162E+02-1.25280E+03 3.28708E+04-3.58737E+02-6.83881E+03 1.06215E+03
 -1      1888-2.16838E+03-3.03247E+02 3.14730E+04-5.17003E+02-8.71051E+03-9.50116E+02
 -1      1889 2.49937E+03-1.11495E+03 6.06561E+04-6.25466E+02-8.86626E+03-1.19747E+02
 -1      1890 6.68589E+02-1.09479E+03 1.53021E+04-1.10472E+02-8.35344E+03 1.43252E+03
 -1      1891-3.06739E+03 5.01166E+02-1.48027E+04-9.96686E+01-9.07616E+03 9.61980E+02
 -1      1892 1.25571E+02-2.39747E+02-1.57930E+04 8.88560E+01-5.83538E+03-5.80448E+03
 -1      1893-1.83415E+03 2.89878E+01 6.92346E+03-5.04771E+02-8.29347E+03-3.68927E+03
 -1      1894-2.92749E+03 3.48430E+03 5.16842E+03 2.44988E+03-9.29532E+03-5.18579E+03
 -1      1895-2.14904E+01 1.52528E+03 2.05127E+04 1.67541E+03-1.17760E+04-1.40625E+03
 -1      1896-1.89131E+03-3.95022E+03-2.71638E+04-8.20126E+02-4.52564E+03 5.89205E+03
 -1      1897-5.28175E+02-1.39524E+02 7.79405E+03 3.68586E+01-4.34081E+03 1.24461E+02
 -1      1898-5.83407E+02-7.67161E+02 5.66373E+03-3.52077E+02-3.86305E+03-1.83154E+03
 -1      1899-1.68805E+02-1.41076E+02 1.23496E+04-3.53609E+01-3.81641E+03-1.56210E+03
 -1      1900-9.78214E+02-9.17893E+02 1.02339E+04-6.62339E+02-4.32952E+03 2.36804E+02
 -1      1901 3.27418E+02 1.01302E+02 9.76660E+03 9.45020E+01-3.34758E+03-8.61480E+02
 -1      1902-5.43444E+02-7.07193E+02 1.04194E+04-2.93426E+02-3.61218E+03-1.52191E+03
 -1      1903 2.00310E+03 2.51962E+03-4.55413E+04-2.72354E+03-1.09950E+03-4.28660E+02
 -1      1904-3.00252E+03 1.94328E+03-6.29933E+04 2.99726E+03 1.25006E+03-8.69211E+03
 -1      1905-3.63936E+03-5.33681E+03-9.55679E+04 6.74294E+02-6.82510E+03-9.65087E+03
 -1      1906 3.03840E+03-1.60356E+03-6.46046E+04 1.57625E+03-2.71512E+03-5.93955E+02
 -1      1907-2.13385E+02 9.46625E+02-6.39436E+03 2.39712E+03-6.53392E+03-6.48616E+03
 -1      1908 3.71330E+03 2.58017E+03 1.32236E+04 2.11675E+03-6.59454E+03-3.55016E+03
 -1      1909 6.57315E+02-8.75845E+02-1.15530E+03 1.37839E+02-4.47506E+03-3.75943E+03
 -1      1910 1.15429E+04-3.84536E+03 8.08194E+04-8.62542E+03-1.92330E+04 4.85167E+03
 -1      1911-6.13406E+02 2.98601E+03-3.73507E+03-3.89086E+02-5.67127E+03-4.81484E+03
 -1      1912 5.62409E+04 1.17634E+05 6.57139E+04-3.61426E+04-5.48575E+04-8.11813E+03
 -1      1913-7.69709E+02 3.42547E+02 3.73538E+03 3.19315E+02-3.81800E+03-1.32148E+03
 -1      1914-2.44725E+02 1.41039E+02 1.61300E+03-2.40480E+01-1.87286E+03-2.78102E+02
 -1      1915-1.18439E+03-3.04255E+02 2.67493E+03-2.16140E+02-1.30126E+03-2.27532E+02
 -1      1916 9.56816E+02 4.28987E+01-2.36442E+03-1.42003E+02-2.17792E+03-1.84175E+03
 -1      1917 3.59221E+02 1.87511E+02 3.35368E+03-2.76670E+02-1.83841E+03-1.50792E+03
 -1      1918-8.45032E+02-6.20726E+02-4.92111E+03 2.21144E+02-2.28384E+03-1.74679E+03
 -1      1919 6.59094E+02-1.29693E+03 3.42780E+04-2.72012E+00-6.40207E+03-1.12646E+03
 -1      1920-2.05758E+03 9.45987E+02 4.80038E+03 6.45963E+02-5.94844E+03 2.92896E+02
 -1      1921-8.86155E+02 1.07254E+03 1.50500E+04-1.68884E+02-4.97165E+03 9.52878E+01
 -1      1922-9.90125E+02 3.30144E+02 8.45612E+03 5.16796E+02-5.27572E+03-1.76478E+03
 -1      1923 7.69767E+02 1.25077E+02 1.71358E+04 1.46575E+02-4.76781E+03-1.14133E+03
 -1      1924 9.76098E+03 3.91816E+03-1.13927E+05-2.24663E+03-9.67403E+03-8.16660E+03
 -1      1925-9.56134E+01 3.56022E+02 3.92829E+03-1.15852E+02-2.67525E+03 2.52420E+01
 -1      1926-1.19996E+03 2.39548E+02-9.24590E+02 1.36919E+02-3.09354E+03 1.87379E+02
 -1      1927-1.64490E+02-4.78399E+01-2.63378E+01-1.40081E+01-2.14233E+02-2.89371E+02
 -1      1928-5.08977E+02 7.73494E+02 2.61968E+04-5.30772E+01-7.74628E+03-2.37520E+03
 -1      1929-2.45529E+03 1.04831E+03 5.30014E+03 2.82601E+02-8.93310E+03-1.68567E+02
 -1      1930 9.38456E+02-4.53200E+02 2.34373E+04 1.92297E+02-8.04484E+03 3.81321E+02
 -1      1931-1.55952E+03 8.80357E+02 1.89510E+04 5.74179E+02-7.69079E+03-2.76293E+03
 -1      1932 9.61203E+03 1.05917E+04 7.02789E+04-4.05015E+03-2.58915E+04 5.86326E+03
 -1      1933 8.10354E+03-7.88183E+03 3.74624E+04-4.27061E+03-1.08069E+04-2.67443E+03
 -1      1934-5.49487E+02-3.25994E+03 4.33238E+03-2.55962E+03-1.57999E+04-5.34916E+03
 -1      1935-7.57837E+03 1.82803E+01 3.70516E+04 2.95347E+02-1.58634E+04 6.55149E+02
 -1      1936 3.24962E+03-3.65521E+01 7.29628E+04 5.92007E+02-1.47820E+04 4.27754E+03
 -1      1937-1.71146E+02-1.17388E+03 2.25452E+04-7.75460E+01-6.09927E+03-3.26145E+03
 -1      1938-1.93675E+02-3.78339E+01-9.83670E+02-1.23388E+02-2.02983E+03-1.29444E+03
 -1      1939-8.05832E+02-2.85571E+02 3.12624E+03-1.09207E+02-1.68108E+03-1.33917E+03
 -1      1940-6.00275E+02-4.31156E+01 1.43103E+03-4.63102E+01-1.66379E+03-1.39387E+03
 -1      1941-2.36757E+02-7.03843E+02 4.64917E+03 5.61949E+01-1.92808E+03 2.10315E+02
 -1      1942-1.51631E+02 3.34032E+02-2.51076E+02-1.04044E+01-1.65991E+03-3.50080E+02
 -1      1943-1.12464E+03 6.05245E+02 1.36866E+03-1.86006E+02-1.84035E+03-2.97172E+02
 -1      1944-5.32145E+02-4.84023E+02 6.13038E+03-2.37271E+02-1.58265E+03 1.71633E+02
 -1      1945-3.27630E+01 2.92559E+02-8.69090E+02 2.76046E+01-2.07364E+03-1.65349E+03
 -1      1946 1.47027E+04 9.37031E+03-4.44383E+03 8.71610E+03 1.50095E+02-7.20157E+03
 -1      1947-5.41265E+02-1.80519E+03 2.61768E+04 3.85104E+02-5.94647E+03 2.81395E+02
 -1      1948 1.25181E+03 1.62450E+03 1.29378E+04-1.37577E+03-5.88607E+03-4.24701E+03
 -1      1949-5.93559E+02 4.86549E+02-3.13182E+04-2.41002E+03-6.30692E+03-6.61328E+03
 -1      1950 7.87278E+03 1.81299E+03-5.47788E+03 8.36141E+03-3.01170E+03-3.86680E+03
 -1      1951 1.72556E+03-1.33048E+03 2.50625E+04-4.70420E+01-9.44682E+03-3.22409E+02
 -1      1952 1.07132E+03-1.64995E+03 5.19858E+04 6.94619E+02-1.06914E+04-1.39254E+03
 -1      1953 4.08887E+02 4.42904E+02-5.50420E+03-2.88485E+01-2.46332E+03-1.40684E+03
 -1      1954-5.46552E+02-7.03800E+01-2.15079E+03 5.27865E+01-1.29460E+03-1.28122E+03
 -1      1955-1.77209E+02 3.36991E+03-4.52973E+04 3.33251E+02-4.44399E+03-6.62005E+03
 -1      1956 1.47032E+04-9.10919E+03 7.50620E+04-5.93825E+03-1.76983E+04 1.83007E+03
 -1      1957 7.53481E+03-4.47526E+02 7.74737E+04-8.52526E+02-1.88503E+04 7.83101E+03
 -1      1958 1.01226E+01 5.26292E+02 1.64137E+04 2.16248E+02-6.26508E+03 6.31293E+02
 -1      1959-1.04736E+03-7.48120E+01 8.67051E+03-3.13642E+02-6.02140E+03-4.77038E+01
 -1      1960-5.04655E+01-4.79205E+02-1.54366E+03-3.71541E+02-2.32083E+03 3.29182E+02
 -1      1961-5.23061E+02-9.93484E+02 2.26891E+03 4.86528E+02-1.81951E+03 1.14813E+03
 -1      1962-1.51458E+02 1.11382E+02-1.47875E+03-6.00756E+01-9.30376E+02-9.21432E+02
 -1      1963-1.99229E+03-1.46451E+03-8.08722E+04 7.54516E+02-7.80102E+03-8.55502E+03
 -1      1964-3.33572E+03-2.21220E+03-6.88350E+04-5.28898E+03-7.00995E+03-6.92189E+03
 -1      1965 1.53275E+03 3.42588E+02-8.27423E+03-1.79531E+03-6.77920E+03-3.15419E+03
 -1      1966 1.58137E+03-5.16008E+02-2.13386E+04-2.47941E+02-5.16928E+03-5.84797E+03
 -1      1967-1.87336E+02 1.48032E+02-1.34995E+03-1.23818E+02-2.96487E+03 1.37251E+03
 -1      1968 1.42122E+03-4.34706E+02 3.75203E+04 9.83624E+01-8.70370E+03-1.25898E+03
 -1      1969-1.64563E+03-1.34269E+03 2.17916E+04 1.08675E+03-9.72385E+03-1.77157E+03
 -1      1970-2.12249E+03 3.85846E+02 1.09642E+04-6.96383E+02-8.14953E+03 3.61983E+03
 -1      1971-1.10919E+02-4.41659E+01 1.09565E+03-8.62800E+01-8.08211E+02-8.14947E+02
 -1      1972-4.30807E+02 7.65438E+01 1.43893E+03-5.75158E+01-7.81999E+02-4.68239E+02
 -1      1973-3.49117E+02 1.50790E+02-4.00670E+02-8.15414E+01-9.43414E+02 6.00735E+01
 -1      1974-7.15847E+02 8.23416E+01 6.02358E+02-5.94755E+01-8.57028E+02-3.91551E+02
 -1      1975-3.34533E+02-3.45008E+01 5.65866E+02 6.97401E+00-7.28264E+02 5.56255E+01
 -1      1976-3.13130E+02-2.49272E+02 2.02602E+04 2.45515E+02-5.34465E+03-2.61947E+03
 -1      1977 7.90847E+03 9.42810E+02 4.11265E+04 4.06911E+03-1.36457E+04-6.89148E+03
 -1      1978-9.24882E+02 6.59805E+00 1.17227E+03-2.34042E+01-6.09557E+02 2.95685E+02
 -1      1979-2.97073E+02-6.67981E+02 1.74955E+04-3.47132E+02-4.77897E+03-2.16541E+03
 -1      1980-3.95589E+02 3.80675E+02-4.58626E+02-7.69446E+01-2.25595E+02 2.16134E+02
 -1      1981-5.37302E+02-5.41078E+01-3.37210E+02-3.18979E+02-4.64068E+02 5.75609E+02
 -1      1982-4.27285E+02-1.96384E+01 3.53927E+02 1.34280E+01-5.08199E+02 6.20511E+02
 -1      1983-4.91538E+02-1.72474E+03 1.77962E+03 4.73868E+02-1.69989E+03 7.27361E+03
 -1      1984-1.11351E+03-2.73167E+02-7.81633E+03-1.12493E+03-3.23237E+03 3.46003E+03
 -1      1985-8.78448E+02-2.06161E+02-1.24681E+04-2.47269E+02-2.88599E+03 2.29019E+03
 -1      1986-3.42343E+02-1.03560E+03 4.88898E+03 7.00420E+01-2.31129E+03 8.62675E+03
 -1      1987-6.00051E+02 1.09783E+02-1.77447E+04 2.02474E+02-3.83922E+03 2.61431E+03
 -1      1988-1.03925E+03-7.30008E+02-2.37551E+04 2.76602E+02-4.70381E+03 2.97134E+03
 -1      1989-4.20777E+02-1.47145E+03 7.02779E+03-6.79084E+01-3.49328E+03 9.99508E+03
 -1      1990-8.87715E+02 4.98228E+02 4.73584E+03 4.56527E+01-3.56373E+03-1.92178E+03
 -1      1991 2.61096E+03 3.66263E+02-5.16536E+04-1.64512E+01-4.00173E+03-2.93273E+03
 -1      1992-1.04754E+03 5.63888E+02 1.04275E+04 1.39241E+02-4.79741E+03-2.60820E+03
 -1      1993-4.32660E+03-7.26767E+02 2.88187E+04 1.15579E+03-1.09181E+04-2.79510E+03
 -1      1994 3.61416E+03 8.56106E+02 3.68399E+04 2.60632E+03-1.06061E+04-3.96984E+03
 -1      1995-2.23574E+02 1.46260E+02-3.04004E+03 8.09677E+01-1.45988E+03-1.37421E+03
 -1      1996-3.36948E+02-5.65072E+02 1.09896E+04-4.02005E+02-2.99433E+03-5.34134E+02
 -1      1997-1.61126E+03 2.45095E+02 8.58862E+03-1.65481E+01-3.25967E+03-2.21376E+02
 -1      1998-3.53960E+02 3.32864E+01 5.46249E+02 5.61669E+01-1.32782E+03-2.35959E+02
 -1      1999-8.96581E+02-4.01489E+02 1.79522E+04 1.72480E+02-6.70457E+03-3.51685E+03
 -1      2000-4.75469E+01 5.50312E+01-1.20384E+03-1.52495E+02-6.63811E+02-7.22491E+02
 -1      2001 4.83411E+01 7.18923E+01-1.97282E+03-1.04320E+02-8.82124E+02-7.48399E+02
 -1      2002 7.36652E+03-2.92499E+03 5.24206E+04 1.45169E+03-1.30318E+04-1.82489E+03
 -1      2003 7.38625E+02-1.72115E+03 5.11127E+04-4.90029E+02-7.96362E+03 1.91326E+03
 -1      2004-2.04414E+03-5.28606E+02 5.03289E+04 1.28756E+02-8.08216E+03 1.04488E+03
 -1      2005-1.16449E+03-5.24488E+02 7.13479E+03-2.77912E+02-2.80746E+03 4.58002E+02
 -1      2006-2.25745E+03 8.32181E+02 3.23838E+04 1.06289E+02-6.82452E+03-2.81129E+03
 -1      2007-4.18663E+02-2.27707E+02 3.59973E+03-6.00737E+01-1.67900E+03-2.91656E+02
 -1      2008-6.58129E+03-4.23564E+03-4.59556E+04-5.25577E+03-2.95614E+03-3.01969E+03
 -1      2009 1.23451E+03-3.42530E+03 3.99883E+04 3.97368E+02-9.90665E+03-2.43653E+03
 -1      2010 1.27359E+03 2.67348E+03 3.04933E+04 6.77037E+02-6.57350E+03-4.05038E+03
 -1      2011-1.70456E+03-2.13314E+03 2.02845E+04 1.91939E+02-7.42278E+03-5.35817E+03
 -1      2012-2.16131E+03 3.90485E+02-4.62269E+04 4.00854E+02-6.51518E+03-6.21890E+03
 -1      2013 1.51394E+02-2.51854E+02-1.36937E+04 2.91066E+02-7.62605E+02-2.71561E+03
 -1      2014-1.04595E+04-5.70552E+03-8.88634E+04 1.38561E+03-6.78541E+02-7.81118E+03
 -1      2015-8.43074E+04 1.18372E+04-3.94089E+05 2.12590E+04-1.04013E+04-2.96485E+04
 -1      2016-5.40023E+04 1.76015E+04-3.50112E+05 2.85472E+04 8.37203E+03-3.82902E+04
 -1      2017-2.56345E+03-2.16623E+03-1.13571E+05-9.01645E+01-6.25494E+03-4.57941E+03
 -1      2018 1.22447E+03-2.29152E+03-9.15992E+04-5.80491E+03-2.99175E+03-9.41060E+03
 -1      2019 1.31001E+03-2.02634E+03-9.95207E+04-2.69902E+03-6.63180E+03-2.47751E+03
 -1      2020 2.37285E+03-1.97770E+03 5.28027E+04-9.38142E+02-8.99169E+03 2.21071E+03
 -1      2021-1.84419E+03-2.68746E+02 9.16588E+03-8.30675E+01-5.20995E+03-2.28866E+03
 -1      2022 1.01725E+02-6.15188E+01 1.82541E+04 1.02492E+02-4.97135E+03-1.88011E+03
 -1      2023 2.75765E+03 1.38952E+03 2.67385E+04 9.14481E+02-8.40555E+03-4.67524E+03
 -1      2024-3.38087E+01-3.63165E+01 1.08729E+04 3.74514E+01-3.64119E+03-1.37153E+03
 -1      2025-9.35795E+02-5.17982E+02 1.71499E+04-4.99110E+02-7.52309E+03 3.24714E+03
 -1      2026 2.94602E+01-2.51704E+02 3.33537E+02-5.21700E+01-1.05460E+03-9.49500E+02
 -1      2027-4.96815E+02-6.12482E+02 5.31501E+03-2.78982E+02-2.04537E+03-8.73218E+02
 -1      2028-5.70004E+02-1.07824E+02 5.30132E+01-1.96254E+02-1.35216E+02 1.98165E+02
 -1      2029-5.35334E+02-1.13747E+03 1.58158E+04 1.02626E+02-4.39729E+03 9.58286E+01
 -1      2030 2.74618E+03 7.68394E+02 2.91909E+04 6.42659E+02-6.96547E+03-3.59154E+03
 -1      2031-1.74987E+03 1.42181E+03-2.89565E+04 1.16170E+03-6.55086E+03-4.85351E+03
 -1      2032-3.51675E+02 5.70265E+02 1.36922E+04-1.83581E+02-7.36944E+03 7.85632E+02
 -1      2033-7.40455E+02 6.11809E+02 1.57614E+03 2.53862E+02-4.00567E+03 2.54497E+02
 -1      2034-8.17138E+02 7.75481E+02 4.46857E+03 3.77865E+02-5.44082E+03 1.40034E+02
 -1      2035-1.51681E+03 1.42013E+02 2.68560E+04-2.88342E+02-7.64545E+03 1.31142E+03
 -1      2036-4.29751E+02-2.31825E+02 2.49637E+03-2.26240E+02-1.05126E+03-7.08102E+01
 -1      2037 1.43687E+03-2.69648E+03-3.46701E+04-2.05864E+02-5.36154E+03-4.81066E+03
 -1      2038-4.56454E+04-7.86086E+04-8.73019E+03 5.19870E+04 2.24779E+04 4.53867E+03
 -1      2039 6.41140E+04-1.01688E+04 3.32889E+05 3.68312E+04 8.85744E+03 4.30145E+04
 -1      2040 2.38884E+04 1.09259E+04-3.54560E+04 3.03569E+04 6.23931E+03 3.81801E+02
 -1      2041-3.17393E+03 1.53939E+03 4.29015E+04-1.25991E+03-1.23021E+04 3.67208E+03
 -1      2042-4.34724E+02 7.84515E+01-4.46611E+02-5.36651E+01-5.96778E+02-2.78817E+02
 -1      2043-1.58711E+03 6.85120E+02 2.27374E+03 4.57834E+02-4.32121E+03 2.49410E+02
 -1      2044-6.99022E+02 8.16981E+02 7.48437E+03-2.30003E+02-3.72774E+03-5.29886E+01
 -1      2045-3.42173E+02-8.85365E+02 2.00700E+04 1.24819E+02-4.93888E+03-6.16753E+02
 -1      2046-1.72076E+03-7.16048E+01 1.14269E+04-9.09105E+01-4.34633E+03 1.04337E+03
 -1      2047-3.99542E+02-1.73307E+01 8.40242E+03 1.53555E+01-3.67981E+03 2.46131E+02
 -1      2048-1.27922E+03-1.62894E+03 1.26918E+04-2.60106E+02-3.41086E+03 6.55981E+02
 -1      2049-1.83335E+02-8.09491E+02 7.94395E+03 1.28357E+02-3.85224E+03 6.65205E+02
 -1      2050-3.65070E+02 3.67117E+02-8.30687E+02-2.67193E+02-1.78649E+03 6.08558E+02
 -1      2051-4.20035E+02-9.09886E+02 1.32599E+04-2.96697E+01-4.57032E+03-2.46506E+03
 -1      2052 4.71243E+02-3.83650E+02-6.92865E+04-2.19351E+03-4.88541E+03-5.37526E+03
 -1      2053-2.35319E+03-3.45776E+03-1.17259E+05-1.91097E+03-2.55444E+03-7.08662E+03
 -1      2054-8.39961E+02 7.42382E+01-4.68280E+01-7.55813E+01-1.70014E+02-1.98358E+02
 -1      2055-6.49546E+02 2.29594E+01-1.12815E+02 3.33553E+01-5.66347E+02 4.18986E+02
 -1      2056-5.74503E+02 2.82406E+02 1.07953E+03-1.62851E+02-2.58027E+03-1.81501E+02
 -1      2057 1.42929E+03-2.78351E+02-3.36640E+04-6.15866E+01-3.20649E+03-2.40579E+03
 -1      2058 9.13909E+02-1.96168E+02-1.74965E+04-3.83823E+01-2.51975E+03-1.86841E+03
 -1      2059-5.10149E+01 6.83510E+00-5.26347E+00 4.82069E+00-7.43982E+02-8.54383E+02
 -1      2060-3.36291E+02-2.44913E+01-1.37174E+03 6.17655E+01-1.09817E+03-1.00246E+03
 -1      2061-3.24342E+02 5.47551E+01-8.96887E+01-3.51267E+02-1.28441E+03-5.23863E+02
 -1      2062 4.47883E+02 1.13984E+03 1.53425E+04-8.19912E+02-5.68866E+03 6.36484E+02
 -1      2063 1.63792E+02 4.18060E+02 1.38962E+04-8.32100E+01-5.26955E+03 5.05080E+02
 -1      2064-1.41971E+03-1.18160E+02 4.30224E+03-5.39609E+01-3.94603E+03-1.64552E+03
 -1      2065-1.85908E+04-7.91271E+03-5.77784E+04 2.35429E+04-9.47058E+03-7.82820E+02
 -1      2066-6.88778E+01-6.26478E+02 4.23981E+04-7.24484E+02-7.89856E+03-7.84879E+02
 -1      2067 6.41071E+02-1.13153E+03 1.80573E+04-1.34464E+02-7.03314E+03 5.14708E+02
 -1      2068-3.07802E+02-8.29220E+02 2.36602E+03 2.48040E+01-2.07917E+03 1.17450E+03
 -1      2069-2.74879E+02-2.01009E+02 1.29645E+04 1.18706E+02-3.95005E+03-1.84085E+03
 -1      2070 8.88245E+03-2.92901E+03 8.45800E+04-4.05699E+03-1.05295E+04 3.99708E+03
 -1      2071-2.19880E+03 2.46646E+03 2.78261E+04-3.34816E+03-1.57307E+04 3.45259E+03
 -1      2072-3.40590E+02 1.39761E+02-5.12443E+02 3.37841E+00-6.24260E+02-6.68752E+02
 -1      2073 4.91343E+03-1.00560E+03 4.41307E+04 1.03815E+03-9.84078E+03-3.35192E+03
 -1      2074 9.04245E+02-3.75947E+02-4.54382E+04-5.16331E+02-3.28729E+03-1.13916E+03
 -1      2075 9.66678E+02-3.71641E+02-2.62273E+04-3.62047E+02-2.75017E+03-1.34263E+03
 -1      2076-1.72868E+03-4.65703E+03 1.31084E+04 2.48500E+03-8.84263E+03-3.88759E+03
 -1      2077 1.07057E+03 1.75455E+02-1.08520E+04-1.03660E+02-1.96589E+03-1.34089E+03
 -1      2078-1.63406E+03-1.08127E+03-9.45258E+03-3.63967E+02-1.62694E+03-1.69773E+03
 -1      2079-1.66932E+02-1.90516E+01-3.47604E+02 1.37118E+01-1.74234E+02-2.40145E+02
 -1      2080-5.81322E+02 9.24568E+00 1.52166E+02-2.90431E+01-2.11952E+02-3.29932E+02
 -1      2081-2.06144E+02 3.51203E+01-2.52547E+02-1.57362E+01-3.26679E+02-4.38342E+02
 -1      2082-1.91915E+02 3.44750E+01-4.03796E+02-7.07051E+01-3.01677E+02-3.09211E+02
 -1      2083-1.02951E+02 6.75381E+01-3.37781E+02-1.01347E+01-1.28603E+02-9.07765E+01
 -1      2084 3.00833E+02-1.25003E+03 1.69076E+04 1.54888E+03-8.26977E+03-1.97806E+03
 -1      2085-1.66021E+03 9.77938E+02 2.08443E+04 3.03317E+02-5.40067E+03-8.28955E+02
 -1      2086-5.80046E+02-5.05842E+02-2.82020E+04-1.52205E+03-5.71472E+03 1.22951E+03
 -1      2087-1.89408E+03-1.76421E+03 2.41076E+04-1.03047E+03-6.02501E+03 3.05190E+03
 -1      2088 3.60596E+02-3.82269E+02 4.94204E+04-9.76757E+01-5.69775E+03 6.92800E+03
 -1      2089 4.53114E+02 1.07750E+03-1.07010E+03-1.95618E+01-5.32482E+03 4.95186E+03
 -1      2090-2.95857E+03-2.91634E+02 1.16223E+04 1.67574E+02-1.02913E+04 3.04318E+02
 -1      2091-1.59100E+03-3.45427E+03-8.27894E+03-1.13749E+03-1.08929E+04-1.02837E+03
 -1      2092 5.79219E+03-3.52348E+03 4.99166E+04-1.25327E+03-8.92677E+03 2.82461E+03
 -1      2093 2.51040E+03 2.16063E+03 6.86383E+04-1.62514E+03-8.99085E+03 5.42752E+03
 -1      2094-9.48984E+01 3.34089E+01 1.83520E+04-6.27034E+01-3.28035E+03 9.12607E+03
 -1      2095-2.70430E+03 1.51519E+01 4.19535E+04 5.79679E+01-1.05141E+04-4.19227E+02
 -1      2096-8.43377E+01-1.27346E+01 9.68738E+02-4.79937E+01-8.44589E+02-6.69962E+02
 -1      2097 1.01612E+03 4.09347E+03-5.75422E+04 1.75478E+03-4.56174E+03-4.79139E+03
 -1      2098-1.07364E+03-1.18511E+03-3.12428E+03 6.68514E+01-1.72964E+03-1.50512E+03
 -1      2099 1.38188E+02 2.37831E+01 2.53753E+03-1.41879E+00-1.78015E+03-1.29382E+03
 -1      2100-6.81845E+01-6.41303E+02 1.76111E+03-7.54742E+01-1.73593E+03 5.54571E+02
 -1      2101 2.54851E+02 7.24237E+01-1.82510E+03-2.21489E+02-1.31226E+03-2.61221E+03
 -1      2102-7.24602E+02-5.98988E+01 1.51819E+02 4.22848E+01-5.37702E+02-1.64025E+02
 -1      2103-1.67931E+03-2.64951E+02 1.00632E+04-1.04234E+03-3.28949E+03 2.45329E+03
 -1      2104-8.02161E+02-3.32236E+02 3.59558E+03-4.11505E+02-3.11217E+03 8.75983E+02
 -1      2105-4.26233E+02-9.90697E+01-3.75867E+03 5.30961E+01-1.15021E+03-8.94621E+02
 -1      2106-2.76057E+02-4.75073E+02-1.73069E+03-1.51603E+02-1.13537E+03-1.11318E+03
 -1      2107-1.73333E+02-2.82714E+01 5.65473E+01-2.96784E-01-1.64244E+02-2.33810E+02
 -1      2108-5.67893E+02-1.00843E+02 1.56482E+03-1.56711E+02-2.86392E+03 1.08088E+03
 -1      2109-1.39438E+03 7.81889E+02 9.42400E+03-2.51528E+02-3.29570E+03 2.49545E+03
 -1      2110-9.49591E+02-9.08133E+02 1.05493E+04-5.57499E+02-2.47627E+03 1.65708E+03
 -1      2111-2.46449E+02 3.60575E+02-5.22132E+02-9.67518E+01-1.35151E+03 1.23310E+02
 -1      2112 5.06234E+02-8.58553E+02 7.23481E+03 1.07676E+03-6.02653E+03 1.22607E+03
 -1      2113-4.70501E+02 7.48006E+01-3.86362E+02-5.24794E+01-6.36851E+02-4.76926E+02
 -1      2114-6.84670E+02 2.81190E+00 5.50056E+02-1.38535E+02-1.04918E+03 3.84416E+02
 -1      2115-3.78052E+03 9.76084E+02-8.38613E+03-1.25488E+02-1.03245E+04 3.72391E+02
 -1      2116 9.36610E+02 4.69533E+03 4.35313E+04-3.87539E+03-7.49693E+03 8.21672E+03
 -1      2117-1.04790E+03 1.81302E+03-4.73378E+03 3.74447E+02-4.37865E+03 1.43010E+03
 -1      2118 1.18261E+02-1.19844E+03 9.10230E+03 3.24349E+00-4.29282E+03 1.40083E+03
 -1      2119 1.90165E+03-2.63420E+02-5.54921E+04-2.74076E+03-3.33841E+03-1.25779E+03
 -1      2120 8.73198E+01-6.37316E+01-1.68248E+03-3.30110E+01-8.75659E+02-7.24891E+02
 -1      2121-2.41581E+01 1.77579E+03 2.23789E+04 6.06594E+02-5.97195E+03 4.03986E+03
 -1      2122-1.87720E+03 3.59459E+03-2.92278E+04-6.50231E+02-4.45267E+03 3.35619E+03
 -1      2123-1.63928E+03-2.45089E+01 1.58357E+04 6.33190E+01-4.86829E+03-5.16285E+02
 -1      2124 2.36277E+02-1.32412E+03-4.40169E+04-1.96224E+03-3.97308E+03-2.92784E+03
 -1      2125 1.02107E+02-5.57540E+02-2.48751E+04-1.14460E+03-3.07568E+03-2.09289E+03
 -1      2126 9.90036E+01 8.04789E+02-5.28538E+03-2.10334E+02-9.34933E+02 7.71047E+02
 -1      2127-2.16029E+02 6.26519E+01-4.18022E+03 1.04006E+01-1.23437E+03 1.60560E+03
 -1      2128-1.49783E+02-6.48357E+02 8.52429E+02-5.27916E+02-1.46474E+03 2.74187E+03
 -1      2129-1.62810E+03 1.43305E+02 6.45524E+03-1.66753E+02-2.70223E+03 1.01375E+03
 -1      2130-2.79087E+02-1.96057E+02 1.62734E+03-5.09603E+01-1.37755E+03-1.09453E+03
 -1      2131-1.11095E+03-6.31460E+01 2.67403E+04-4.92988E+01-5.77991E+03 1.67937E+03
 -1      2132-2.69133E+03-1.31441E+03 1.67274E+04-1.05040E+03-3.92870E+03 2.71705E+03
 -1      2133-9.86348E+02-9.08360E+02 2.50318E+03-4.21857E+02-4.09197E+03 7.43860E+02
 -1      2134 4.58190E+02-3.53219E+02 4.44357E+03 3.55804E+02-2.53040E+03 9.70054E+02
 -1      2135-4.23071E+02-2.01008E+03 1.46202E+04-9.93167E+01-5.98316E+03 1.88759E+03
 -1      2136 7.68680E+02-1.58309E+02 5.51578E+04-1.99415E+02-5.90974E+03 3.31918E+03
 -1      2137 1.84841E+02 7.68750E+02 7.66052E+03-6.53947E+02-3.98656E+03 2.92949E+02
 -1      2138-4.99159E+02 1.32751E+01-1.13991E+03-2.09272E+01-2.20675E+03 2.08147E+03
 -1      2139-7.72120E+02 1.46372E+02 3.09575E+03-4.19615E+02-2.73742E+03 2.10151E+03
 -1      2140-1.05649E+03-9.28438E+02 5.45484E+03-4.47079E+02-2.05853E+03 2.90106E+03
 -1      2141-7.18304E+03 3.47671E+03-1.16547E+04-8.77393E+03-3.65256E+03 7.33125E+03
 -1      2142 1.39644E+04 6.61665E+03 9.32755E+04-6.39450E+03-8.68175E+03 6.03980E+03
 -1      2143-1.29309E+04 1.93131E+03-6.00432E+04-4.13353E+03-9.84288E+03 4.69792E+03
 -1      2144-1.57899E+03-4.27154E+01 7.27206E+02-7.08938E+02-6.29456E+03 1.96178E+03
 -1      2145-1.61930E+01-1.42540E+02-7.56023E+01 1.37340E+01-4.86854E+02-6.19079E+02
 -1      2146-5.74331E+02-4.38775E+01 9.35970E+02 1.14608E+01-1.33234E+03-1.15882E+03
 -1      2147-3.97489E+02 2.25583E+02-2.09943E+02-1.07689E+02-1.77385E+03-1.50180E+03
 -1      2148-1.67538E+03-7.26324E+02-8.37594E+02 8.33828E+02-8.90859E+03-4.40767E+03
 -1      2149 2.19100E+03-2.34614E+03-8.70864E+02-4.48608E+03-6.22107E+03 9.85269E+02
 -1      2150-9.45190E+03-4.99939E+03-6.33290E+04-7.00451E+03 5.17115E+03 6.10149E+03
 -1      2151-3.76262E+04 9.72535E+03-2.78258E+05-1.29015E+04-2.44265E+04 3.43234E+04
 -1      2152-5.10198E+03 4.60659E+03-6.87662E+04-1.89062E+04 1.54682E+04 2.91454E+03
 -1      2153-2.43901E+04-1.02410E+04-1.39203E+05 6.95885E+03 3.14002E+01-1.08447E+04
 -1      2154-3.48770E+04-1.48258E+03-2.91057E+05-3.60222E+03-2.95701E+03 2.29038E+04
 -1      2155 1.21821E+03-5.37788E+02-3.46620E+04-1.57278E+03-3.32687E+03-1.62941E+03
 -1      2156-3.93592E+02-1.01396E+03 8.46198E+03-3.18388E+01-2.36560E+03 6.48892E+03
 -1      2157 2.10686E+04-4.71976E+03 6.93344E+04-8.90817E+03-1.00118E+04-1.17964E+03
 -1      2158-1.65891E+03-5.80440E+03 5.12466E+03-1.12168E+04-1.30829E+04-3.23357E+03
 -1      2159 3.96977E+03-3.64392E+03 4.86666E+04-1.24868E+02-1.14506E+04-3.60868E+02
 -1      2160 1.22882E+03-1.31204E+03 5.52533E+04 1.12675E+03-1.20740E+04 4.91722E+02
 -1      2161-1.57542E+03 2.31272E+03-5.86967E+03 2.01196E+02-5.57129E+03 1.88597E+03
 -1      2162 1.83117E+03 1.84232E+03-5.07770E+03-8.70092E+02-6.07126E+03 8.04819E+03
 -1      2163-3.19279E+03-4.13151E+03-4.00338E+04-2.19426E+03-4.77148E+03 1.83642E+03
 -1      2164 6.45544E+03-4.64319E+03 3.55648E+04-2.30954E+03-1.14515E+03 2.84512E+03
 -1      2165-1.51441E+03-7.69518E+02-8.03054E+03-1.54943E+02-1.24352E+03-1.17339E+03
 -1      2166-4.40559E+02-1.52022E+02 1.97189E+03-4.93692E+01-1.08490E+03 6.30040E+02
 -1      2167-2.41000E+03 2.07095E+03-6.49621E+03-7.53286E+02-7.73910E+03 5.79759E+03
 -1      2168 4.33987E+03 1.53371E+03 6.69907E+04-1.10371E+03-6.76433E+03 7.56767E+03
 -1      2169-5.88773E+02 2.81031E+02-2.36504E+04-1.15181E+02-7.97150E+02-4.21846E+03
 -1      2170 1.98776E+02 3.27790E+02-2.37020E+04 7.56398E+02-9.05546E+02-3.48233E+03
 -1      2171 5.33088E+01-3.90931E+02-1.07082E+04 1.71541E+02-1.38940E+03 9.46957E+02
 -1      2172-2.28121E+02 1.64320E+01-1.00219E+04-2.76239E+02-1.67792E+03 2.52657E+03
 -1      2173-1.89745E+02 5.49205E+01-7.90941E+02 8.79388E+01-6.91391E+02-6.96326E+02
 -1      2174-8.86609E+01 5.29722E+01-3.32638E+02-6.81020E+01-6.90816E+02-6.60794E+02
 -1      2175-1.62808E+02-2.39061E+02-5.74371E+03 2.60871E+02-2.44526E+03-2.59716E+03
 -1      2176 3.82070E+02 3.27482E+02-1.78377E+04-8.43442E+02-2.29879E+03-1.28173E+03
 -1      2177 5.22737E+02 2.03772E+03 1.20083E+04-2.73688E+02-4.06859E+03 2.24525E+03
 -1      2178-4.75438E+02-1.54687E+03 3.23492E+04-1.18176E+02-6.03371E+03 2.40727E+03
 -1      2179-1.09902E+02 1.23183E+01-1.05418E+03 1.52641E+01-5.68094E+02-6.13183E+02
 -1      2180-1.74004E+04 5.57690E+03-1.34759E+05 1.00626E+04 2.56380E+03-1.51269E+04
 -1      2181-7.05897E+02 2.73333E+02 4.15162E+02-1.90171E+02-1.30921E+03 4.18376E+02
 -1      2182-1.00414E+02-3.15808E+02-3.65188E+03-2.05973E+02-1.77533E+03-1.36094E+03
 -1      2183-1.09505E+02-7.16101E+00 4.57351E+01-5.05003E+00-3.49121E+02-4.16035E+02
 -1      2184 1.86602E+02-8.83569E+02 2.08824E+04 8.58880E+02-1.15732E+04-4.22944E+03
 -1      2185-1.18598E+03-8.71883E+02 6.65007E+03-7.42906E+02-2.82024E+03 3.27993E+03
 -1      2186 5.67652E+02-5.70707E+02-8.11373E+01 3.70930E+02-2.86519E+03 1.85640E+03
 -1      2187 1.60892E+04 1.64175E+04-3.48943E+04 5.67578E+03 1.34183E+02 8.50001E+03
 -1      2188-3.27650E+03-4.47003E+03-1.02649E+05-2.85613E+02-5.75849E+03-3.02933E+02
 -1      2189-8.78586E+02-1.10900E+02 3.19498E+03-1.87073E+02-1.26851E+03 1.02177E+03
 -1      2190-2.26994E+02 4.36437E+03-4.83494E+04-1.82872E+02-5.77722E+02 3.38108E+03
 -1      2191-4.02730E+04-1.71414E+03-3.00000E+05-1.90465E+03 6.64783E+03 2.91113E+04
 -1      2192 2.27364E+03-2.53511E+03 3.38938E+04-1.76854E+03-6.11491E+03 4.30216E+03
 -1      2193 1.19113E+03 1.57240E+03 6.06715E+04-1.16244E+03-8.08743E+03 6.77591E+03
 -1      2194 1.14423E+01-1.88390E+03-1.54957E+04-9.93604E+02-7.57277E+03 1.77517E+03
 -1      2195 3.28827E+02 3.71363E+02-6.16721E+02 3.29026E+01-1.51417E+03-1.16735E+03
 -1      2196-2.96734E+02 3.00664E+02 1.90145E+02-1.04120E+02-1.54468E+03-9.66313E+02
 -1      2197-1.04046E+03-1.31583E+03 4.05203E+03 3.21677E+02-5.12720E+03 1.72489E+03
 -1      2198-5.38248E+02-1.33901E+03 2.83129E+04-2.31163E+02-5.64808E+03 4.36710E+03
 -1      2199 2.97773E+01-3.62530E+02-3.44039E+04-5.37807E+02-5.13780E+03 2.39524E+03
 -1      2200 5.75614E+02 2.95566E+03 1.66363E+04-2.45291E+02-8.41435E+03-4.84259E+03
 -1      2201-3.82954E+03-5.82626E+03-9.70307E+04 5.79641E+02-1.58926E+03 3.87812E+03
 -1      2202-8.43443E+01 1.97063E+03-3.28475E+04-8.50470E+02-6.74352E+03 8.09875E+03
 -1      2203-8.56604E+03-8.41284E+01-2.28302E+05-8.65953E+02-1.39146E+03-1.22428E+03
 -1      2204-7.08873E+02-1.33188E+02 2.25898E+03 4.94893E+01-1.14910E+03 8.70387E+02
 -1      2205-2.25992E+02 7.33874E+00-3.82105E+03-2.09005E+01-1.19687E+03-9.63378E+02
 -1      2206-4.15940E+02-2.12564E+02 2.47517E+02-1.47861E+02-1.86698E+02 4.82168E+02
 -1      2207-3.41427E+02 7.02789E+01-2.32089E+02-1.48698E+02-2.02134E+02 6.45129E+02
 -1      2208-8.66313E+02 6.72576E+01-2.63182E+03-9.16969E+01-3.70853E+03 2.13157E+03
 -1      2209 5.95970E+02-6.79102E+01-2.87457E+04 4.47986E+01-2.03708E+02-3.92568E+03
 -1      2210-3.25888E+02 7.76999E+01 7.45149E+02-1.15438E+01 4.93570E+01-7.45338E+02
 -1      2211 2.54506E+02 2.34375E+02-4.01669E+03-2.29999E+02-1.78226E+03-1.14615E+03
 -1      2212-4.31940E+00 1.31427E+03 5.53738E+03-9.76415E-01-3.22489E+03 1.56464E+03
 -1      2213-1.15372E+03-1.47662E+03 1.95103E+04-2.23966E+02-3.62077E+03 2.02679E+03
 -1      2214-6.78091E+01-3.82661E+02-2.18669E+03-5.04567E+02-1.01799E+03 5.85088E+02
 -1      2215-3.40442E+02 7.08835E+02-5.97021E+03-4.59417E+01-1.19238E+03-3.19178E+02
 -1      2216 8.18178E+01 4.47573E+02-1.38740E+03-1.12869E+02-1.20252E+03 8.93223E+02
 -1      2217-4.73916E+02-5.70187E+02 1.51489E+03-2.79616E+02-9.71135E+02 1.70367E+03
 -1      2218 1.11792E+03 2.10440E+03 3.94126E+04 1.82725E+01-5.06903E+03 1.08770E+04
 -1      2219 5.48404E+02 6.08244E+02 1.08925E+02 2.54505E+02-1.29987E+03 2.91728E+03
 -1      2220-6.60405E+02 1.75837E+01 6.21490E+03 7.02227E+01-2.92989E+03 3.81635E+03
 -1      2221-1.00254E+03 1.00336E+03-1.42152E+04 7.19213E+02-5.63066E+03 6.58231E+03
 -1      2222-1.27105E+03-4.28996E+03-2.45774E+04-5.32556E+01-6.83985E+03 3.15510E+03
 -1      2223 2.80458E+03 4.81439E+02 3.97725E+04 6.26486E+02-4.22365E+03 8.68733E+03
 -1      2224 2.63884E+03 6.63478E+02 3.33034E+04 1.48139E+03-1.03448E+04-3.80157E+03
 -1      2225-1.00158E+03-5.73085E+02 4.82452E+03-2.61142E+02-1.81304E+03 1.97012E+03
 -1      2226-4.87007E+02-1.80380E+02-1.94479E+03-1.45989E+02-1.41897E+03-1.06302E+03
 -1      2227-4.99877E+03-3.09855E+03-1.95905E+05-3.89208E+02 3.43089E+02-2.95229E+03
 -1      2228-1.92248E+01 1.91614E+02-9.44284E+02-6.08557E+01-5.45025E+02-3.96546E+02
 -1      2229 5.86349E+02-1.97047E+03-1.32736E+04-7.11730E+03-7.89491E+03-2.97285E+03
 -1      2230-1.09619E+03 7.53904E+02 6.78887E+02 1.16813E+02-5.63340E+03 1.72485E+03
 -1      2231-3.07614E+02-1.03467E+03-2.15808E+03-2.02427E+02-1.02214E+03 1.59092E+03
 -1      2232-2.78705E+02 8.42805E+02 3.84628E+02-1.62333E+02-9.58173E+02 1.17396E+03
 -1      2233-4.75966E+02-9.18790E+00 4.07689E+02-1.42926E+02-9.78490E+02 8.68917E+02
 -1      2234 7.41188E+01 4.62507E+02-7.57481E+02 1.09953E+01-1.03447E+03 5.16995E+02
 -1      2235-1.12614E+03 5.21156E+02-4.56727E+04 6.44127E+01-9.51428E+03 2.09186E+03
 -1      2236-6.54997E+02 1.36827E+03-1.66415E+04-1.40439E+03-6.45828E+03 2.78089E+03
 -1      2237-3.80359E+02 1.06929E+03 2.59358E+04-4.76180E+02-4.72768E+03 3.85173E+03
 -1      2238-4.65045E+02 4.57287E+02 4.76992E+03-9.83462E+01-4.62955E+03 1.71718E+03
 -1      2239 1.50343E+03 5.65280E+02 1.39921E+04 4.52499E+02-4.18908E+03 2.51083E+03
 -1      2240-5.98798E+03 2.28509E+02-1.84631E+05 1.64075E+03-4.20605E+03-5.53261E+03
 -1      2241-1.98872E+03-1.26524E+03 2.01612E+04-5.65907E+02-4.51424E+03 9.54858E+02
 -1      2242-3.80549E+03 8.77224E+02-3.18562E+04-2.63364E+02-8.10368E+03 2.59416E+03
 -1      2243-5.99146E+02-2.61653E+03-5.54312E+03-1.58047E+02-7.36907E+03 2.89380E+03
 -1      2244-1.37514E+02-1.11261E+02 4.88769E+01-1.33950E+02-1.32134E+02 2.95126E+01
 -1      2245-7.91294E+02 8.14453E+02-5.56292E+03 3.54768E+02-5.13846E+03 5.94408E+03
 -1      2246 4.94805E+02 1.91490E+03 2.53080E+04 1.12114E+03-4.69936E+03 6.29663E+03
 -1      2247-7.73090E+02-5.62128E+02 2.36362E+03 1.45089E+02-3.83616E+03 1.33070E+03
 -1      2248-2.20578E+00 5.49273E+02-5.53094E+03 1.68668E+02-8.74643E+01-1.52655E+03
 -1      2249-5.14223E+02 7.18387E+02-4.32396E+03-3.76267E+02-2.81055E+03 2.29471E+03
 -1      2250-9.76654E+03-1.68854E+04-1.94877E+04-1.50937E+04 6.76494E+03-1.90145E+03
 -1      2251 1.95929E+03 3.09381E+03 1.07795E+04-1.76861E+04-8.46551E+03-3.30986E+01
 -1      2252-3.63618E+02 5.47631E+01 7.69366E+01-1.02342E+02-1.75325E+03 1.74978E+03
 -1      2253-1.79301E+02-8.69085E+02 1.25142E+04 1.14744E+02-5.08935E+03 5.01070E+02
 -1      2254-8.96153E+02-1.55113E+02-1.37181E+03 1.44837E+02-5.44651E+03 3.49856E+03
 -1      2255-8.33042E+02-3.17042E+01 2.05728E+03-2.39046E+02-2.02629E+03 1.28176E+03
 -1      2256-3.00159E+02-2.58491E+02 1.39852E+04 3.21851E+01-2.46121E+03 7.86520E+03
 -1      2257-2.66144E+03-8.39544E+02 1.07754E+04-1.28231E+03-3.23707E+03 5.02410E+03
 -1      2258-1.21620E+03 5.87381E+02-7.08375E+03 4.48049E+02-5.77879E+03 3.24307E+03
 -1      2259-1.16511E+03-9.84594E+00 8.06366E+01-2.36344E+02-2.15333E+02 5.32547E+02
 -1      2260-9.40826E+02-3.89853E+03-4.56363E+04-6.88609E+01-3.88730E+03 2.73799E+03
 -1      2261-1.44663E+03-2.83005E+03 2.73533E+04-9.15845E+02-6.38485E+03 6.22785E+03
 -1      2262-1.86823E+03-2.38673E+03 4.55254E+03-5.36221E+02-5.92349E+03 5.41420E+03
 -1      2263-3.15330E+03-2.62023E+02-1.05591E+05-6.15180E+02-7.36833E+03 1.00882E+03
 -1      2264-1.37734E+03-2.40766E+01 3.79194E+03-9.13318E+02-7.07688E+03 4.76241E+03
 -1      2265-1.05070E+03-2.71293E+03-6.37587E+04-5.15752E+02-3.68780E+03 3.60311E+03
 -1      2266-3.20696E+02-3.17844E+01-6.15620E+02-7.31267E+01-1.54308E+03 9.36745E+02
 -1      2267-8.36268E+02-2.35605E+02 2.87831E+04-1.15519E+02-5.81437E+03 3.51402E+02
 -1      2268-7.81497E+02-6.54588E+02 1.11685E+04 1.64984E+02-6.55606E+03 4.14723E+03
 -1      2269-3.63140E+02 6.86361E+02-5.47799E+03-3.97398E+02-3.70287E+03 3.75271E+03
 -1      2270 6.42024E+02 8.42311E+02-4.01391E+04 7.43260E+02-6.75964E+03 5.68511E+03
 -1      2271 4.18985E+02 1.65758E+03-8.78216E+03-4.64652E+01-5.05452E+03 3.28675E+03
 -1      2272-2.78122E+03-7.35198E+02 8.39595E+03-8.63594E+02-3.96934E+03 5.58103E+03
 -1      2273-7.37761E+02-9.96834E+02 3.63370E+03-5.51831E+02-2.18250E+03 3.53314E+03
 -1      2274 3.17528E+02-9.20219E+02-2.88995E+03 1.32320E+02-2.26110E+03 1.58768E+03
 -1      2275 1.63269E+03 3.14646E+03 1.66017E+04-9.98660E+02-2.90561E+03 7.87809E+03
 -1      2276-1.02681E+03-2.46020E+03-3.89832E+04-4.06624E+02-4.79232E+03 4.56998E+03
 -1      2277 4.68066E+02 4.38941E+02-4.10531E+04 1.57734E+03-4.68287E+03 5.99032E+03
 -1      2278 5.55987E+02-5.90971E+02 3.17077E+02-5.85985E+02-3.16649E+03 4.93901E+03
 -1      2279-7.10480E+02-9.38429E+01-7.87533E+03-6.06310E+00-4.40599E+03 4.25407E+03
 -1      2280 1.26574E+01-8.66679E+02 4.21363E+04-3.80719E+02-6.61012E+03 1.55745E+03
 -1      2281-4.71192E+02-2.28844E+03 2.35302E+04-1.14530E+03-5.49312E+03 8.46366E+03
 -1      2282 6.10164E+02-4.84067E+03 5.17725E+04-1.16946E+03-8.25523E+03 8.92700E+03
 -1      2283-5.51399E+02-8.85159E+02 1.55456E+04-3.16914E+02-4.11955E+03 3.15747E+03
 -1      2284 8.20356E+02 6.31098E+02 2.15458E+04-2.85356E+02-4.75052E+03 6.34027E+03
 -1      2285 5.65630E+02 2.91329E+03 2.43212E+01-2.97378E+02-2.71294E+03 5.27925E+03
 -1      2286-1.99159E+04-5.96935E+04 2.52226E+04-2.19747E+04 1.92521E+03 1.68898E+03
 -1      2287 3.55130E+04 4.86895E+03 1.32743E+05-1.75014E+04 3.03512E+03-3.00606E+03
 -1      2288 1.40154E+03 5.74671E+02 1.93830E+04-9.15094E+02-5.90038E+03 2.47271E+03
 -1      2289-9.39408E+01 2.81313E+02-9.11485E+02-2.41678E+02-1.17225E+03 5.81916E+02
 -1      2290-4.55724E+02-2.16986E+02-6.32170E+02-1.35439E+02-7.35036E+02 3.28526E+02
 -1      2291-2.35715E+03-9.25528E+02 4.94674E+03-7.83039E+01-5.70326E+03 4.22738E+03
 -1      2292-1.57260E+02 8.13241E+02-2.11752E+03-1.74792E+02-8.47371E+02 6.43270E+02
 -1      2293 4.99094E+02 8.17563E+02-6.97333E+04 1.66043E+03-3.10292E+03 3.77258E+03
 -1      2294-2.18179E+04-3.82236E+03-2.39142E+05-2.15427E+03 3.38573E+03 1.00607E+04
 -1      2295-5.73221E+03 5.23356E+03-1.09866E+05-8.54391E+02-7.06458E+02 9.46700E+03
 -1      2296 3.52823E+02 5.55714E+02-1.56005E+03 3.25883E+02-1.43486E+03 1.66007E+03
 -1      2297-6.55268E+04-7.72173E+04-1.64158E+05-2.24177E+04 4.79351E+03 6.14562E+03
 -1      2298 2.29440E+03-1.92102E+03 5.13335E+04-1.17423E+03-7.61889E+03 3.79567E+03
 -1      2299 8.54946E+02-2.22929E+03 3.76845E+04-1.40946E+03-5.06865E+03 6.01483E+03
 -1      2300-1.06450E+03-3.04911E+03-2.16335E+04-1.31175E+02-5.86055E+03 2.68445E+03
 -1      2301-1.66383E+04-7.48656E+01-2.23219E+05 3.19763E+02-1.33311E+03 5.35455E+03
 -1      2302 1.63650E+04 2.93848E+03 6.68672E+04-3.09564E+03-8.41053E+02 1.82938E+03
 -1      2303-7.82096E+02 5.35165E+02 1.61569E+04-1.37272E+02-5.66015E+03 6.08656E+03
 -1      2304-2.78107E+02-4.07416E+02 1.57820E+02-1.91236E+02-7.07581E+02 1.10832E+03
 -1      2305-5.84924E-01-6.21373E+01 1.21429E+02-5.71186E-01-5.42821E+02 4.61563E+02
 -1      2306-2.56801E+02-2.50386E+02 2.14296E+03-2.22349E+02-1.60679E+03 3.12625E+03
 -1      2307-1.12064E+03-5.51773E+01 2.18559E+02-1.60479E+02-2.23157E+02 9.37190E+01
 -1      2308-7.83058E+03-2.12152E+03-1.37719E+05-2.40676E+03-3.07408E+03 7.47011E+03
 -1      2309 9.87283E+03-1.28249E+03 4.44897E+04-1.07716E+04-9.92952E+02-3.97373E+03
 -1      2310-5.83791E+03-1.05369E+04-7.70067E+04-4.71006E+03-1.26855E+02 3.86398E+03
 -1      2311 2.31360E+03 4.89224E+03-4.44218E+04 1.17382E+03-4.18053E+03 2.25609E+03
 -1      2312-1.86957E+03-4.38394E+03-7.17436E+04-5.03826E+02-4.58164E+03 2.33481E+03
 -1      2313 2.63998E+04-2.11507E+03 6.57013E+04-6.46511E+03-1.49659E+03-6.58229E+03
 -1      2314-3.33495E+02-1.36487E+03 2.15263E+04-2.51823E+02-5.55849E+03 6.29701E+03
 -1      2315 1.16713E+03 4.16234E+02 5.03838E+03-3.11683E+02-2.70264E+03 5.15361E+03
 -1      2316-4.94880E+02-1.41338E+03 1.10778E+04-1.97989E+02-3.78503E+03 4.59328E+03
 -1      2317 6.76652E+02 3.11498E+02 1.92937E+03-5.96948E+01-1.67783E+03 3.74900E+03
 -1      2318-5.73864E+03 4.90209E+03-4.87825E+04-1.97874E+03-5.66173E+03 6.89375E+03
 -1      2319-4.07278E+02-1.01147E+01-4.07636E+03 1.12575E+02-4.13744E+03 2.45132E+03
 -1      2320 1.09172E+04-1.88532E+03 4.44925E+04-2.74386E+03-1.47894E+03 8.68061E+02
 -1      2321-1.18869E+03 3.44020E+02 3.72621E+03-5.40910E+02-2.73821E+03 4.61776E+03
 -1      2322-1.19704E+03 4.91475E+02 7.70919E+03-4.72623E+02-3.79898E+03 5.95096E+03
 -1      2323-7.07852E+02-1.29475E+02 4.11844E+02-1.15830E+02-6.24024E+02 9.55943E+02
 -1      2324-1.90671E+03-1.43289E+03 8.86066E+03-5.20125E+01-4.04322E+03 5.14268E+03
 -1      2325-4.17650E+02-1.09503E+03 1.27135E+04-3.32598E+02-4.62471E+03 5.19496E+03
 -1      2326 1.42244E+03 2.36232E+02 2.27524E+03 1.78602E+02-3.67561E+03 4.00453E+03
 -1      2327-2.38906E+03-9.22768E+02 4.62289E+03-6.05607E+02-3.18182E+03 4.20528E+03
 -1      2328-3.88079E+02 4.02485E+02 5.97327E+03 1.22534E+02-2.80454E+03 5.43377E+03
 -1      2329 7.19667E+01 7.30488E+02-2.25439E+03 1.09293E+02-6.46539E+02 1.56344E+03
 -1      2330-1.06498E+03 2.08686E+01-2.05116E+02-1.86869E+02-2.01307E+02-5.37843E+01
 -1      2331 1.74369E+03 2.51039E+02 8.01047E+03 6.20422E+02-3.75095E+03 4.67726E+03
 -1      2332 1.10835E+03-6.80659E+01 3.77940E+03 4.08368E+02-2.50520E+03 3.27909E+03
 -1      2333-9.98772E+02 8.06198E+01-5.08562E+03-6.81562E+01-3.11203E+03 3.13064E+03
 -1      2334-6.55901E+01-4.99506E+02-5.68058E+04 1.20175E+03-6.23450E+03 1.34102E+03
 -1      2335-2.46518E+02 5.71484E+02-5.76293E+02-8.78202E+01-6.80236E+02 1.43200E+03
 -1      2336-1.94793E+02 3.43102E+02-4.98225E+03-1.97502E+02-2.51949E+03 2.20012E+03
 -1      2337-7.02659E+02 6.45201E+02-8.62313E+03 5.96549E+01-1.69241E+03-5.31753E+01
 -1      2338 2.11815E+02-6.56196E+01 3.38485E+03-1.09055E+02-1.29488E+03 4.29422E+03
 -1      2339 9.62547E+02 5.68808E+02 2.51328E+03-5.26152E+02-2.41048E+03 4.13854E+03
 -1      2340-2.61599E+02 3.86197E+02-1.34678E+03 1.17510E+01-4.28682E+02-4.43126E+01
 -1      2341-2.96718E+02 1.75542E+02-4.54556E+02-8.78587E+01-1.77205E+02 3.64402E+02
 -1      2342-1.10592E+03 1.44963E+02 6.53153E+03-4.74116E+02-2.98164E+03 5.35756E+03
 -1      2343-4.32437E+02-2.28145E+02-1.55829E+04 9.90244E+01-2.24758E+03 9.98861E+02
 -1      2344-1.09586E+03 2.80309E+03-7.16155E+04 1.48995E+03-4.29095E+03 1.58595E+03
 -1      2345-2.82581E+04-9.66098E+04 2.60760E+04 2.97558E+04-3.82080E+02 9.59297E+03
 -1      2346-4.45539E+04 8.57506E+03-2.35158E+05-3.15418E+03 1.91709E+04 4.10845E+04
 -1      2347-1.31299E+02 1.61796E+02 4.81608E+02-1.50526E+02-1.26435E+02-7.16573E+02
 -1      2348-1.96153E+02 4.36814E+01-3.34915E+02-1.41136E+02-2.00255E+02 8.12477E+01
 -1      2349-2.86869E+02-5.62906E+03-1.36063E+04-2.14555E+03-2.10824E+03 5.66897E+03
 -1      2350-1.82530E+03-2.16503E+02-3.09527E+04 5.74406E+02-6.13510E+03 1.00695E+03
 -1      2351-9.58520E+02-1.63171E+03-1.43833E+05 1.09989E+02-1.60131E+03-8.82061E+03
 -1      2352 3.54690E+02 1.46766E+02-7.42879E+03-2.59939E+02-1.62110E+02-1.83434E+03
 -1      2353-2.55439E+02 2.13896E+02-1.20432E+04 1.59011E+02-4.91714E+01-2.88517E+03
 -3
    1PSTEP                         3           1           1          
  100CL  101 1.000000000        2353                     0    1           1
 -4  TOSTRAIN    6    1
 -5  EXX         1    4    1    1
 -5  EYY         1    4    2    2
 -5  EZZ         1    4    3    3
 -5  EXY         1    4    1    2
 -5  EYZ         1    4    2    3
 -5  EZX         1    4    3    1
 -1         1 3.26461E-05-2.26547E-05-9.20466E-04-6.52678E-05 1.14089E-03-4.12835E-04
 -1         2 5.80315E-08-1.77199E-07 2.74981E-07-5.25286E-08-1.22104E-07 2.50745E-07
 -1         3 2.43546E-07-3.61942E-07 4.45666E-07-1.34822E-07 3.34848E-07-2.28464E-07
 -1         4 5.04265E-05 6.41891E-06-4.98596E-04 5.98520E-05 7.17092E-04 1.23787E-04
 -1         5-2.18171E-07-6.29412E-07 1.76084E-06-2.60728E-07-1.61737E-07-1.53476E-06
 -1         6 9.46597E-05 9.36716E-05-5.27924E-04 9.60513E-05 8.64938E-04 1.23784E-04
 -1         7 3.73231E-04 3.51147E-04-9.99453E-04 2.41054E-05 4.41472E-04-1.51990E-05
 -1         8 4.92000E-04 3.67528E-04-1.43294E-03-1.73556E-05 2.89833E-04 6.35513E-05
 -1         9 2.18766E-04 1.92883E-04-8.30529E-04 2.04930E-05 1.40901E-04-5.74130E-05
 -1        10 3.02543E-04 2.43099E-04-8.97677E-04 5.02544E-07-1.79585E-05 2.63317E-05
 -1        11 3.29079E-04 2.94077E-04-1.01951E-03-2.56169E-05-5.33512E-05-3.06798E-05
 -1        12 3.47439E-04 3.72416E-04-1.09076E-03-3.81579E-05-8.06288E-05-3.54452E-05
 -1        13 2.78227E-04 2.71043E-04-8.70920E-04 1.09641E-05-3.34080E-05-1.46877E-05
 -1        14 1.79616E-04 1.24515E-04-6.49027E-04-3.41407E-05-2.03782E-05 4.90429E-05
 -1        15 2.43693E-04 2.45934E-04-7.26762E-04 7.22595E-07-1.79635E-05 2.94581E-06
 -1        16 2.00446E-04 1.85206E-04-6.47100E-04 1.07947E-05-4.85575E-05-1.76068E-05
 -1        17 1.81737E-04 1.95453E-04-6.24866E-04-1.31940E-05-5.79131E-05 3.41880E-05
 -1        18 1.45675E-04 1.15551E-04-4.69352E-04 2.30728E-06-4.77219E-05 1.51949E-05
 -1        19 1.41766E-04 1.47028E-04-4.83891E-04 3.76883E-06-7.55667E-05-2.86128E-05
 -1        20 1.33899E-04 1.30939E-04-4.39509E-04-5.22538E-06-4.59557E-05 1.97208E-05
 -1        21 1.08977E-04 1.17328E-04-3.83660E-04-1.69521E-06-5.49640E-05 4.80694E-06
 -1        22 1.00254E-04 9.11899E-05-3.19599E-04-4.19018E-06-4.04760E-05 2.12598E-05
 -1        23 8.09670E-05 8.75052E-05-2.86314E-04 1.27052E-06-5.28690E-05-5.57783E-06
 -1        24 7.52337E-05 7.37168E-05-2.47424E-04-3.63247E-06-3.55404E-05 1.53889E-05
 -1        25 5.92988E-05 6.37914E-05-2.08929E-04-1.13519E-06-3.83059E-05 5.55057E-06
 -1        26 5.16546E-05 4.73761E-05-1.66231E-04-2.51412E-06-2.90822E-05 1.34112E-05
 -1        27 4.02012E-05 4.27831E-05-1.41173E-04 7.38066E-07-3.45040E-05 2.23674E-06
 -1        28 2.32712E-05 1.25320E-05-7.73362E-05 1.25965E-06-3.07930E-05 1.40370E-05
 -1        29 4.34579E-05 4.04102E-05-1.25977E-04-2.79638E-06-2.48521E-05 6.00874E-06
 -1        30 1.20577E-05 8.30846E-06-4.25034E-05-7.83641E-07-1.84613E-05 4.11121E-06
 -1        31 1.31738E-05 9.38352E-06-4.01445E-05-1.63701E-06-1.58245E-05-5.59929E-06
 -1        32 1.17225E-05 1.18559E-05-3.72341E-05-6.31158E-07-1.12038E-05 2.25259E-06
 -1        33 4.69121E-06 3.52683E-06-1.51307E-05-2.80949E-07-8.39864E-06 1.32330E-06
 -1        34 2.99202E-06 1.05869E-06-7.09422E-06-2.31725E-07-5.93681E-06-1.60895E-06
 -1        35 4.81656E-07 2.33943E-07-1.49168E-06-3.33338E-07-2.80399E-06-9.71481E-07
 -1        36 3.47123E-04 1.04690E-04-9.75926E-04 6.91220E-05 8.38498E-04-2.72586E-04
 -1        37 5.28212E-04 4.17083E-04-1.42203E-03-7.59280E-05 4.48137E-04 1.26016E-04
 -1        38 1.88785E-04 2.80481E-04-9.29796E-04-6.55781E-05 2.49735E-04 4.04025E-05
 -1        39 3.33809E-04 2.53104E-04-1.10569E-03-4.84167E-05 1.57299E-05 5.82014E-05
 -1        40 3.18943E-04 2.11216E-04-9.56082E-04-6.06312E-05-9.75116E-05 1.29009E-04
 -1        41 3.44726E-04 9.00337E-05-7.66747E-04-4.88125E-05-1.24555E-04-9.63552E-06
 -1        42 2.99971E-04 3.16597E-04-9.74236E-04-3.93470E-05-5.63034E-05-1.62233E-04
 -1        43 2.85168E-04 1.97250E-04-7.92758E-04-2.10103E-05-6.84446E-05-4.50440E-05
 -1        44 2.30608E-04 2.08774E-04-6.85286E-04-6.20191E-05-9.27003E-06-4.32037E-05
 -1        45 2.24627E-04 1.89085E-04-6.21686E-04-2.08243E-05-5.95584E-05-6.94919E-05
 -1        46 2.25103E-04 1.79458E-04-6.77905E-04-3.62311E-05-7.71027E-05-2.40888E-05
 -1        47 1.72048E-04 1.51006E-04-5.19948E-04-3.01155E-05-7.39900E-05-3.42725E-05
 -1        48 1.50031E-04 1.03001E-04-4.10438E-04-2.67119E-05-8.42526E-05-3.20251E-05
 -1        49 1.60421E-04 1.43978E-04-5.00421E-04-2.65690E-05-8.51002E-05-4.72920E-05
 -1        50 1.26711E-04 1.02457E-04-3.54726E-04-2.41818E-05-7.03752E-05-8.99892E-06
 -1        51 1.23095E-04 1.06080E-04-3.64524E-04-2.27597E-05-6.54312E-05-1.38122E-05
 -1        52 9.27083E-05 7.01707E-05-2.50709E-04-1.83962E-05-6.19515E-05-6.00565E-06
 -1        53 9.09921E-05 8.24946E-05-2.80399E-04-1.64777E-05-6.08174E-05-1.86119E-05
 -1        54 7.13781E-05 5.76725E-05-1.97605E-04-1.35915E-05-4.93284E-05-1.37427E-06
 -1        55 6.59618E-05 5.72771E-05-1.93964E-04-1.24070E-05-4.42924E-05-4.01961E-06
 -1        56 4.77866E-05 3.65610E-05-1.29615E-04-9.14308E-06-4.07943E-05 9.53710E-07
 -1        57 3.87861E-05 4.66124E-05-1.45524E-04-8.93504E-06-4.28832E-05 6.04122E-06
 -1        58 2.53249E-05 1.82762E-05-7.38845E-05 1.69265E-06-2.82886E-05 2.64542E-05
 -1        59 3.07143E-05 2.74209E-05-8.09728E-05 9.54864E-07-2.92565E-05 6.09951E-07
 -1        60 1.09263E-05 5.43580E-06-3.72872E-05-4.08150E-06-1.99652E-05 3.11965E-06
 -1        61 1.15276E-05 1.00509E-05-4.39119E-05-2.31703E-06-1.59284E-05-7.00020E-07
 -1        62 8.45557E-06 6.30235E-06-2.42060E-05-5.25175E-07-1.10447E-05-4.52519E-07
 -1        63 5.01179E-06 2.10551E-06-9.61299E-06-7.09527E-07-7.49949E-06-6.99274E-07
 -1        64 2.27768E-06 8.75080E-07-5.26205E-06-3.30817E-07-5.22288E-06-6.19467E-07
 -1        65 1.39003E-07-1.77909E-07-1.75216E-07-3.04894E-07-1.46396E-06-2.72990E-07
 -1        66-1.83726E-06 5.36685E-07 4.85189E-07-1.85187E-07-1.38027E-07-1.44721E-06
 -1        67-6.85275E-06 1.74788E-06 3.01890E-06-9.88793E-07-7.35044E-08 9.92245E-08
 -1        68-8.44607E-06 2.10931E-06 4.10018E-06-2.24488E-06-2.04206E-08 6.56075E-06
 -1        69-7.20627E-07-2.43587E-07-1.04152E-07-2.55582E-06-8.74607E-07 1.17027E-05
 -1        70 4.26491E-06-6.18126E-07-2.71624E-06-3.89063E-06 9.46496E-09 6.94040E-06
 -1        71-6.22038E-07 2.19148E-07 2.96449E-07-1.89300E-08-4.63915E-08-6.61553E-07
 -1        72-4.24829E-06 1.03209E-06 1.50924E-06-7.18612E-07-7.32152E-08-5.73912E-07
 -1        73-7.29543E-06 2.16560E-06 3.11586E-06-1.48862E-06-2.15893E-07 2.53140E-06
 -1        74-3.93226E-06 1.00571E-06 1.68512E-06-1.37712E-06-2.84219E-07 7.88711E-06
 -1        75 9.74988E-07-5.21029E-07-1.43458E-06-3.02224E-06-3.75144E-08 8.75857E-06
 -1        76 3.27299E-06-4.28944E-07-1.29153E-06-2.39518E-06 7.36474E-07 3.15462E-06
 -1        77 2.36267E-04 2.19001E-04-7.07111E-04-4.32384E-05-9.55879E-05-2.51945E-05
 -1        78 2.06434E-04 1.87867E-04-6.53495E-04-2.47512E-05-1.54555E-05 8.45351E-06
 -1        79 1.70246E-04 1.67085E-04-5.61035E-04 2.05139E-06-6.50430E-06 1.06293E-05
 -1        80 1.38037E-04 1.47605E-04-4.80659E-04 3.85679E-06-7.32062E-06 1.97406E-05
 -1        81 1.13390E-04 1.18987E-04-3.93093E-04 7.17191E-06-8.71044E-06 1.29632E-05
 -1        82 9.59482E-05 9.53689E-05-3.26245E-04 5.64042E-06-4.28646E-06 1.96553E-05
 -1        83 7.52951E-05 7.70409E-05-2.61899E-04 8.74850E-06 5.58692E-06 2.00838E-05
 -1        84 5.39514E-05 5.47187E-05-1.87287E-04 2.60361E-06-1.73086E-06 1.27323E-05
 -1        85 4.06343E-05 3.91716E-05-1.34026E-04 3.58549E-06-5.50268E-06 9.51829E-06
 -1        86 3.18120E-05 2.75701E-05-9.81641E-05 5.37543E-06-1.20931E-05 7.09725E-06
 -1        87 2.00090E-05 2.05456E-05-6.89235E-05 2.74841E-06-5.95886E-06 8.20345E-06
 -1        88 1.21126E-05 1.18659E-05-3.96344E-05 2.05143E-06-2.23770E-06 3.27328E-06
 -1        89 5.88606E-06 6.55816E-06-2.13615E-05 4.89756E-07-1.38203E-06 5.28153E-06
 -1        90 1.68279E-06 6.38588E-07-4.18428E-06 8.88593E-07-2.10946E-06 2.38966E-06
 -1        91 1.83664E-04 2.25031E-04-7.59757E-04 4.67992E-05 2.35621E-04 3.65928E-05
 -1        92 2.14858E-04 1.80195E-04-6.63706E-04-1.93684E-05 6.35939E-05-9.42053E-06
 -1        93 1.94289E-04 1.92998E-04-6.38629E-04-1.40122E-05-2.81160E-05 1.29040E-05
 -1        94 1.64525E-04 1.46653E-04-5.38158E-04-1.34844E-05-9.99543E-06 1.00007E-05
 -1        95 1.15854E-04 1.65206E-04-4.63799E-04-2.06153E-06-4.50907E-06 1.23342E-05
 -1        96 1.06918E-04 1.15973E-04-3.75391E-04-7.83524E-06-1.70227E-05 1.33532E-05
 -1        97 8.01924E-05 1.05902E-04-3.01975E-04-1.01877E-05-1.21795E-05 1.67701E-05
 -1        98 5.79715E-05 8.11906E-05-2.34055E-04 5.05533E-06-9.62141E-07 1.49472E-05
 -1        99 4.09613E-05 6.75291E-05-1.80142E-04 3.83454E-06-8.93799E-06 1.34727E-05
 -1       100 2.93457E-05 5.05203E-05-1.32188E-04-1.92983E-06-7.59626E-06 9.24344E-06
 -1       101 2.77309E-05 2.23287E-05-8.71015E-05-2.49657E-06-1.24962E-05 5.86052E-06
 -1       102 1.33406E-05 2.24078E-05-5.84759E-05 4.77861E-07-4.09681E-06 6.12319E-06
 -1       103 1.12204E-05 4.68341E-06-2.93548E-05 6.44935E-07-3.94959E-06 4.29958E-06
 -1       104 2.45614E-06 3.45823E-06-1.27820E-05 1.28907E-07 4.80806E-08 3.74297E-06
 -1       105 9.49410E-07-1.23954E-07-1.74267E-06 5.36987E-07-9.35636E-07 1.35298E-06
 -1       106-1.07193E-04 1.58866E-05 1.82853E-03 2.74587E-05 2.62292E-04 6.82404E-04
 -1       107-2.99936E-05-5.91401E-04 3.81204E-03 5.14466E-05-1.54178E-04 3.58403E-04
 -1       108-7.36974E-05-3.59792E-04 4.19638E-03-1.61491E-04-5.81163E-04-4.08467E-05
 -1       109-2.67958E-05-5.69590E-07 2.82594E-03-4.80539E-06-3.40245E-04-2.78458E-04
 -1       110-1.75563E-07 4.24583E-07 8.69240E-04-4.27485E-08 2.26385E-04-1.22366E-04
 -1       111 8.54369E-05 1.66097E-05 5.98828E-04 5.67430E-05 8.37900E-04 3.54409E-04
 -1       112 3.61177E-06 1.19420E-05 2.79635E-03-7.64503E-06-3.11121E-04 4.78737E-04
 -1       113-7.29502E-07 1.31616E-05 4.13371E-03 1.27378E-06-6.72353E-04 1.63719E-04
 -1       114 1.20286E-06 5.40902E-06 3.61333E-03 2.96442E-06-6.22641E-04-1.79326E-04
 -1       115 1.62939E-06-6.73382E-07 1.78423E-03-9.96737E-08-6.65280E-05-2.45397E-04
 -1       116-1.13623E-06 7.13689E-08-1.85951E-04 1.78405E-06 5.64263E-04-2.39081E-05
 -1       117 7.69745E-08-5.01349E-07 1.26605E-06-3.48779E-07-8.24450E-08-8.72975E-07
 -1       118 2.40195E-04 2.92583E-04-9.16163E-04 4.91212E-07-1.55055E-05 2.92886E-05
 -1       119 2.24354E-04 2.85506E-04-8.76750E-04-8.77335E-06 2.77818E-05 3.40583E-05
 -1       120 2.08375E-04 2.24573E-04-7.23967E-04-3.17553E-06-9.26306E-06 4.15998E-08
 -1       121 1.62278E-04 1.95073E-04-6.06297E-04-3.47792E-06 1.79014E-05-5.87072E-06
 -1       122 1.37353E-04 1.54216E-04-4.87422E-04-3.96532E-06-2.63967E-07-1.07979E-05
 -1       123 1.03243E-04 1.27710E-04-3.94613E-04-5.77407E-06 7.69540E-06-6.79555E-06
 -1       124 9.08864E-05 9.85129E-05-3.21150E-04-2.61150E-09-5.56552E-07 3.79640E-06
 -1       125 7.33700E-05 6.27978E-05-2.31728E-04-1.20245E-06-4.18937E-06-8.84219E-06
 -1       126 5.24487E-05 4.38093E-05-1.64687E-04 1.12557E-06-1.09763E-05-7.88518E-06
 -1       127 4.21501E-05 2.77998E-05-1.15921E-04-8.37105E-08 8.33473E-07-1.16260E-05
 -1       128 2.27161E-05 2.56231E-05-8.08686E-05-9.13795E-07 3.10121E-06-2.41974E-06
 -1       129 1.51177E-05 1.21303E-05-4.34633E-05-4.95072E-07 9.00882E-07-3.05969E-06
 -1       130 6.41367E-06 6.37599E-06-2.15205E-05-9.07640E-07 8.92671E-07 8.92385E-07
 -1       131 1.71311E-06-7.16606E-07-2.26646E-06 2.63574E-07 8.77547E-08 5.57310E-08
 -1       132 2.10318E-04 2.64313E-04-8.54157E-04-1.46615E-06-5.60751E-05 9.68411E-05
 -1       133 2.29507E-04 2.89063E-04-8.68410E-04-3.23586E-06-1.97592E-05 3.88748E-05
 -1       134 2.17071E-04 2.55842E-04-8.11303E-04-5.52500E-07-1.18096E-05 2.06416E-05
 -1       135 1.96950E-04 2.09170E-04-6.64655E-04-1.45064E-06-2.18635E-05-1.32032E-06
 -1       136 1.45564E-04 1.74115E-04-5.61592E-04-1.84902E-06-1.40005E-05-5.76081E-06
 -1       137 1.27132E-04 1.41926E-04-4.53674E-04 4.80881E-06-1.33322E-05-5.65916E-06
 -1       138 9.54039E-05 1.13103E-04-3.59575E-04 4.22023E-07-3.82461E-06 7.55069E-08
 -1       139 7.48338E-05 9.27629E-05-2.83019E-04-3.31212E-06 7.46125E-06-1.15972E-06
 -1       140 5.74195E-05 6.34812E-05-2.12821E-04-1.27225E-05 2.73108E-07-8.97879E-07
 -1       141 3.84853E-05 4.42943E-05-1.55212E-04 5.35192E-07 6.21671E-06-3.85409E-06
 -1       142 3.37444E-05 2.72512E-05-9.99918E-05 1.53088E-06-2.30806E-06-5.08126E-06
 -1       143 1.65740E-05 2.02486E-05-6.53487E-05 2.86078E-08-1.01425E-06-1.34029E-06
 -1       144 1.27751E-05 7.35132E-06-3.12452E-05 8.52171E-07-1.36053E-06-8.23060E-07
 -1       145 3.85729E-06 1.73152E-06-1.11520E-05 4.13043E-07 1.15171E-07 4.53914E-07
 -1       146 7.32971E-07-4.48415E-07-3.63809E-07 2.27507E-07-4.99656E-08-2.84260E-07
 -1       147 6.20330E-05 2.63740E-05-3.63505E-04 1.07624E-04 1.33992E-03 8.40264E-05
 -1       148 1.06201E-04 3.74774E-04-2.83325E-03 8.26110E-05 1.78018E-04-6.15637E-04
 -1       149 4.90303E-06 1.60018E-04-3.45479E-03-5.61604E-05-5.38893E-04-2.37954E-04
 -1       150 8.11210E-05 5.46442E-04-3.85091E-03 1.16037E-04-1.99293E-04 1.80141E-05
 -1       151 1.24384E-05 5.25552E-04-2.69509E-03-2.73625E-05-1.45577E-05 1.90066E-04
 -1       152-2.42685E-06 1.63227E-04-1.23181E-03 4.65159E-06 1.74344E-04 1.25244E-04
 -1       153-1.04328E-04 1.24183E-05-2.03031E-03 2.70966E-05 6.33900E-04-7.98677E-04
 -1       154 2.60988E-06-3.26749E-06-3.02618E-03 1.78297E-06-3.73989E-04-3.60729E-04
 -1       155-1.79130E-07-5.52707E-06-3.77849E-03-1.01218E-06-7.48055E-04-1.26676E-04
 -1       156-4.32914E-07-2.40177E-06-3.40841E-03 1.16114E-06-4.88438E-04 1.29477E-04
 -1       157-2.54371E-06 3.83541E-04-1.81967E-03 5.68342E-06 8.78283E-05 1.50452E-04
 -1       158 2.45020E-06 1.64360E-05-6.11704E-04-1.22139E-05 5.92385E-04 1.38236E-04
 -1       159 8.56089E-07-5.85351E-08-2.81094E-07 3.35113E-07 4.99294E-07 1.39558E-06
 -1       160-8.35271E-07 2.46111E-07 3.31104E-07-8.88468E-07 1.99475E-07-7.44219E-07
 -1       161-5.65361E-06 3.74752E-06-9.60958E-07-3.00110E-06 2.70777E-07-5.98907E-06
 -1       162-1.08965E-05 4.23687E-06 2.90955E-06-4.72874E-06 1.24349E-06-9.91500E-06
 -1       163-8.37570E-06 2.63218E-06 3.16543E-06-2.29725E-06 2.93081E-08-5.29821E-06
 -1       164 5.14018E-07 1.03238E-07-2.07519E-07 2.30884E-07 1.88922E-07 6.26708E-07
 -1       165 1.39843E-07-2.49796E-08 1.29104E-07-1.87938E-08 1.18767E-07 5.54998E-07
 -1       166-3.76251E-06 1.55298E-06 9.58630E-07-1.90444E-06 8.07279E-07-2.49932E-06
 -1       167-9.10682E-06 3.72010E-06 2.07323E-06-3.11582E-06-7.74555E-07-6.88670E-06
 -1       168-8.81949E-06 1.94261E-06 4.31436E-06-4.43242E-06 6.28233E-07-7.03614E-06
 -1       169-4.64321E-06 1.55808E-06 2.39363E-06-7.46991E-07-4.02579E-07-3.44584E-06
 -1       170-7.26144E-05-6.92231E-05 2.33781E-04-1.05231E-07-1.99735E-05-3.73366E-05
 -1       171-5.24117E-05-4.24479E-05 1.64311E-04-3.46487E-06-1.66555E-05-3.52215E-05
 -1       172-8.42219E-04-1.11938E-03 3.45329E-03 1.27642E-05-6.48065E-05 1.18918E-04
 -1       173-7.40580E-04-1.12109E-03 3.35124E-03-7.26065E-06-7.05825E-05 8.96319E-05
 -1       174-8.34713E-04-1.03115E-03 3.23823E-03 2.13903E-06-6.70477E-05 8.58843E-05
 -1       175-7.22254E-04-9.46307E-04 2.92507E-03-7.02869E-06-6.35143E-05 9.53578E-05
 -1       176-3.80025E-05-3.11813E-05 1.12306E-04-3.85875E-07-1.08207E-05-1.49332E-05
 -1       177-2.96471E-05-2.63748E-05 8.73411E-05 2.47361E-07-7.28156E-06-2.42762E-06
 -1       178-2.22457E-05-1.75014E-05 6.28213E-05-1.13432E-07-8.76665E-06-1.56411E-05
 -1       179-5.74873E-05-4.97624E-05 1.75770E-04-6.48518E-07-1.25034E-05-1.03900E-05
 -1       180-4.59303E-05-3.61093E-05 1.33739E-04 2.98383E-07-1.09675E-05 1.62903E-05
 -1       181-1.10103E-04-9.98270E-05 3.45032E-04-5.89406E-07-2.07714E-05 4.71272E-05
 -1       182-7.25069E-05-7.22266E-05 2.39745E-04 6.11378E-07-1.96003E-05 7.90926E-05
 -1       183-5.79997E-05-5.32037E-05 1.84131E-04-1.84918E-06-1.73701E-05 6.19892E-05
 -1       184-6.01522E-04-9.56510E-04 2.84169E-03-2.15018E-05-5.95473E-05 3.04030E-05
 -1       185-5.03739E-04-1.23816E-03 3.39806E-03-4.58225E-05-8.42883E-05-5.18273E-05
 -1       186-1.78774E-04-1.74855E-04 5.84784E-04-1.44151E-06-2.60995E-05 6.53167E-05
 -1       187-1.21560E-04-1.29312E-04 4.13343E-04 8.92833E-07-2.25602E-05 1.09649E-04
 -1       188-1.24017E-04-1.19445E-04 4.03518E-04-5.58804E-07-1.88248E-05 7.74899E-05
 -1       189-7.37664E-04-1.28023E-03 3.73044E-03 1.85411E-05-8.89646E-05 1.48125E-04
 -1       190-3.33379E-04-3.29637E-04 1.10518E-03-1.86544E-06-3.21996E-05 1.34471E-04
 -1       191-4.29272E-04-4.41352E-04 1.44505E-03-1.44071E-07-3.83196E-05 1.35833E-04
 -1       192-2.92750E-04-2.79513E-04 9.62444E-04-2.79117E-06-3.58202E-05 1.74581E-04
 -1       193-4.14148E-04-4.07419E-04 1.36551E-03 2.60272E-06-3.72812E-05 8.09007E-05
 -1       194-3.36607E-04-3.31290E-04 1.11149E-03-3.54384E-06-3.80048E-05 8.77639E-05
 -1       195-2.40876E-04-2.44376E-04 8.03391E-04-6.90039E-07-3.30852E-05 1.55102E-04
 -1       196-2.55238E-04-2.58656E-04 8.50401E-04 1.81367E-06-3.06064E-05 1.13137E-04
 -1       197-1.84866E-04-1.78689E-04 6.07144E-04-2.06831E-06-2.46725E-05 1.02820E-04
 -1       198-1.65788E-04-1.71496E-04 5.57138E-04-3.65321E-07-2.82120E-05 1.35573E-04
 -1       199-2.37954E-04-2.29467E-04 7.74019E-04 1.15347E-06-2.74264E-05 6.16960E-05
 -1       200-4.34389E-04-6.84787E-04 2.04461E-03-2.26046E-05-2.76532E-05-1.95821E-05
 -1       201-3.23473E-04-4.19474E-04 1.30529E-03-1.80908E-05-3.09543E-05 1.01907E-04
 -1       202-5.56279E-04-7.29990E-04 2.27070E-03-1.27177E-05-5.01916E-05 8.71088E-05
 -1       203-5.30895E-04-5.43870E-04 1.79816E-03-1.19416E-06-4.24947E-05 1.01544E-04
 -1       204-3.89017E-04-3.87188E-04 1.29984E-03 1.33059E-06-3.51150E-05 1.81714E-04
 -1       205-1.41315E-04-3.12090E-04 8.50374E-04-7.11716E-06-5.74930E-06-2.76952E-05
 -1       206-6.05191E-04-6.31570E-04 2.07452E-03-2.52870E-06-4.82867E-05 1.18510E-04
 -1       207-4.75430E-04-5.16219E-04 1.65546E-03-4.57156E-06-4.83855E-05 1.77201E-04
 -1       208-5.01940E-04-5.09996E-04 1.69616E-03-1.89438E-06-3.99069E-05 1.66736E-04
 -1       209-7.01485E-04-7.75632E-04 2.51588E-03-2.21166E-06-4.73500E-05 1.15016E-04
 -1       210-5.38115E-04-5.96694E-04 1.93746E-03-6.40685E-06-5.08226E-05 1.63090E-04
 -1       211-5.93284E-04-6.41135E-04 2.08371E-03 1.87633E-06-3.34652E-05 1.51438E-04
 -1       212-2.68086E-05-3.27273E-05 9.78321E-05 1.44327E-07-1.13652E-05 6.50237E-05
 -1       213-3.84932E-05-4.19333E-05 1.35860E-04 1.55535E-06-1.36312E-05 7.96177E-05
 -1       214-6.50598E-04-7.72739E-04 2.45922E-03-7.32582E-06-5.97183E-05 1.27395E-04
 -1       215-2.46244E-05-2.23038E-05 7.47504E-05-1.65629E-06-8.98352E-06-2.29673E-05
 -1       216-3.87074E-05-3.44083E-05 1.17965E-04-7.95201E-07-1.21994E-05-2.69246E-05
 -1       217-1.88021E-04-5.91738E-04 1.53804E-03-4.17413E-05 2.38999E-05-2.27291E-04
 -1       218-4.03922E-04-9.19103E-04 2.52783E-03-4.96143E-05-2.17510E-05-1.48433E-04
 -1       219-7.42261E-05-7.63662E-05 2.51456E-04-4.08043E-07-1.50736E-05 1.00319E-04
 -1       220-5.38054E-05-4.07127E-05 1.56284E-04-1.81236E-06-1.51806E-05 1.02414E-04
 -1       221-2.69064E-05-2.72879E-05 8.75008E-05-1.52361E-07-1.12514E-05 7.76225E-05
 -1       222-1.17170E-04-1.13749E-04 3.85037E-04-1.74368E-06-1.90777E-05 1.25904E-04
 -1       223-7.61827E-05-6.37255E-05 2.30340E-04-1.93389E-06-1.75323E-05 1.19350E-04
 -1       224-1.63565E-04-1.62670E-04 5.46889E-04-1.78699E-06-2.19915E-05 1.47697E-04
 -1       225-3.46491E-05-3.62531E-05 1.17156E-04-2.98872E-06-1.63053E-05 8.24523E-05
 -1       226-1.04007E-04-9.14313E-05 3.26599E-04-3.28165E-06-2.26520E-05 1.37177E-04
 -1       227-2.18013E-04-2.17519E-04 7.28410E-04-2.09688E-06-2.74917E-05 1.66675E-04
 -1       228-2.46029E-05-1.80161E-05 6.85948E-05-4.54449E-07-7.55968E-06 3.11323E-05
 -1       229-2.57130E-05-2.10876E-05 7.30473E-05-1.44902E-06-7.32311E-06 1.45116E-05
 -1       230-5.07923E-04-5.29695E-04 1.72348E-03-2.71348E-05-4.68242E-05-4.34402E-05
 -1       231-5.81777E-04-5.64949E-04 1.93361E-03-1.12770E-05-4.15969E-05-8.35877E-05
 -1       232-7.16689E-05-6.55175E-05 2.24261E-04 3.11768E-07-1.20383E-05 3.38103E-05
 -1       233-3.83147E-05-3.47314E-05 1.18979E-04-1.03590E-06-1.34185E-05 4.52699E-05
 -1       234-7.78279E-05-7.07287E-05 2.45250E-04-4.51656E-07-1.35047E-05-2.19058E-05
 -1       235-5.01018E-05-4.84156E-05 1.58493E-04 2.43879E-07-1.49978E-05-3.19123E-05
 -1       236-1.29578E-04-1.34149E-04 4.41935E-04-5.86500E-07-3.49413E-05 1.46786E-04
 -1       237-2.79929E-04-2.84037E-04 9.44346E-04-1.86119E-06-2.93574E-05 1.77479E-04
 -1       238-9.26914E-06-7.55950E-06 2.75776E-05-1.64040E-07-5.00102E-06 3.34970E-05
 -1       239-1.16415E-06-6.12841E-08 4.51370E-06-4.75313E-07-6.77941E-06 3.71376E-05
 -1       240-6.55137E-07-4.99393E-06 6.10644E-06-1.24670E-06-5.42751E-06 2.79845E-05
 -1       241 1.87737E-06 5.46268E-06-1.27201E-05 3.69777E-07-2.78894E-06 1.52013E-05
 -1       242-1.65978E-04-1.78835E-04 5.73693E-04 3.96913E-06-3.63025E-05 1.65833E-04
 -1       243-3.45871E-04-3.39130E-04 1.16482E-03-1.57510E-06-2.74183E-05 1.81896E-04
 -1       244-2.08505E-04-2.10358E-04 7.09134E-04 1.65015E-06-4.16770E-05 1.64897E-04
 -1       245-4.10014E-04-4.34161E-04 1.43756E-03 1.63596E-06-4.98225E-05 1.88449E-04
 -1       246-2.39482E-04-2.84940E-04 8.91155E-04-7.62288E-07-4.54689E-05 1.42727E-04
 -1       247-4.57281E-04-5.54730E-04 1.75134E-03 1.15063E-06-3.24061E-05 1.41536E-04
 -1       248-1.46784E-05-1.18708E-05 4.47327E-05 2.73675E-07-1.25703E-05 5.81930E-05
 -1       249-4.60968E-06-5.54081E-06 1.74291E-05-1.23743E-06-1.01543E-05 4.33534E-05
 -1       250-3.25680E-06-2.16394E-06 7.68273E-06 7.31552E-07-3.46719E-06 1.97429E-05
 -1       251-8.82493E-06-1.73062E-06 1.28583E-05 1.51043E-07-2.56147E-06 7.35365E-06
 -1       252-1.36483E-05-7.14420E-06 3.15853E-05-9.02458E-08-6.45217E-06 1.80679E-05
 -1       253-4.40724E-04-1.65512E-03 4.07501E-03 1.19396E-04-9.11537E-05 3.06173E-04
 -1       254-4.12770E-04-1.21032E-03 3.20516E-03 3.06777E-04 3.41664E-05 5.66517E-04
 -1       255-3.56716E-06 4.39898E-07 2.78347E-06-4.51849E-07-2.28545E-06-4.63151E-06
 -1       256-9.70036E-06-3.04327E-06 1.68440E-05-1.31821E-07-3.60934E-06-2.24385E-06
 -1       257-1.59875E-05-1.76530E-05 5.59066E-05-4.35738E-07-8.77883E-06 4.81988E-05
 -1       258-1.89809E-05-1.04711E-05 4.45915E-05-3.59371E-07-5.34929E-06 4.77259E-06
 -1       259-1.69725E-05-1.12039E-05 4.31721E-05-3.32206E-07-5.77831E-06-4.67455E-06
 -1       260-9.84593E-06-6.95406E-06 2.48586E-05-3.65368E-07-5.33138E-06-1.12506E-05
 -1       261-4.84290E-06-2.33504E-06 9.40438E-06-3.56772E-07-3.67750E-06-7.92158E-06
 -1       262-4.14755E-04-4.05395E-04 1.37171E-03-2.59909E-06-5.54391E-05-9.78141E-05
 -1       263-5.75088E-04-5.74045E-04 1.92983E-03 1.00468E-05-3.77773E-05-5.82693E-05
 -1       264-5.96599E-04-6.13147E-04 2.02929E-03 3.65878E-06-3.78988E-05-6.01501E-05
 -1       265-7.20734E-04-7.56523E-04 2.48525E-03 3.98535E-07-4.84905E-05-5.20949E-06
 -1       266-7.64906E-05-6.95990E-05 2.42884E-04-2.67816E-06-1.11277E-05-3.94163E-05
 -1       267-1.23013E-04-1.12429E-04 3.89621E-04 2.75935E-07-2.13919E-05-4.91256E-05
 -1       268-1.12264E-04-1.07645E-04 3.65071E-04 1.12965E-06-1.81262E-05-3.50557E-05
 -1       269-1.52220E-04-1.49475E-04 4.99611E-04-7.13988E-07-2.36955E-05-1.38619E-05
 -1       270-1.58181E-04-1.64989E-04 5.41371E-04-4.10884E-06-2.38873E-05-5.48276E-05
 -1       271-2.40080E-04-2.25645E-04 7.73368E-04 6.52759E-07-2.93745E-05-6.86969E-05
 -1       272-2.32511E-04-2.25421E-04 7.64305E-04 1.09750E-06-2.70859E-05-4.92278E-05
 -1       273-3.04481E-04-3.00236E-04 1.00427E-03 1.51328E-06-3.29629E-05-2.36848E-05
 -1       274-2.73432E-04-2.82714E-04 9.31573E-04-6.87369E-06-3.01176E-05-7.01696E-05
 -1       275-3.83415E-04-3.76021E-04 1.26382E-03-2.84254E-06-4.49253E-05-8.51488E-05
 -1       276-3.95807E-04-3.92592E-04 1.31752E-03 3.25966E-06-3.87538E-05-6.53142E-05
 -1       277-4.97191E-04-5.01305E-04 1.66514E-03-2.61949E-06-3.65260E-05-1.92965E-05
 -1       278-8.19199E-04-1.16663E-03 3.56776E-03 6.00027E-05-2.06593E-05 2.74554E-04
 -1       279-6.83665E-04-9.10088E-04 2.85030E-03 5.61286E-05 1.70595E-05 3.06170E-04
 -1       280-6.22572E-04-1.20112E-03 3.44977E-03 9.44534E-05-1.24966E-05 4.02228E-04
 -1       281-6.46292E-04-8.45018E-04 2.65324E-03 4.77378E-05 4.67562E-05 4.77860E-04
 -1       282-6.69250E-04-1.38231E-03 3.92197E-03 4.64718E-05-9.41048E-05 2.54448E-04
 -1       283-3.57251E-04-3.58940E-04 1.29366E-03 2.18891E-05-1.19000E-04-6.81544E-05
 -1       284-1.06956E-05-6.17998E-06 2.73311E-05-4.06302E-08-7.88815E-06-1.44741E-05
 -1       285-6.96177E-04-8.38806E-04 2.67791E-03 1.81389E-05-2.65642E-05 1.73921E-04
 -1       286-1.58342E-04-1.50711E-04 5.12508E-04-2.83990E-06-2.47223E-05-6.58807E-05
 -1       287-1.16020E-04-1.17831E-04 3.92026E-04-4.15699E-06-2.37954E-05-5.42127E-05
 -1       288-2.83340E-04-2.72285E-04 9.21871E-04-4.81519E-06-3.33233E-05-8.90213E-05
 -1       289-2.17226E-04-2.23440E-04 7.40446E-04-7.09159E-06-3.18823E-05-7.36015E-05
 -1       290-4.50358E-04-4.24788E-04 1.44509E-03-7.90862E-06-4.43697E-05-8.97865E-05
 -1       291-3.43734E-04-3.48518E-04 1.18182E-03-5.20096E-06-3.23755E-05-9.01466E-05
 -1       292-8.19815E-04-9.44841E-04 3.02538E-03 1.16096E-05-4.56318E-05 6.82469E-05
 -1       293-7.11135E-04-7.50722E-04 2.47021E-03 1.33221E-05-2.59582E-05-7.15080E-06
 -1       294-5.55079E-04-5.81053E-04 1.90804E-03-5.34720E-06-2.15336E-05-2.94632E-06
 -1       295-8.24204E-04-9.27038E-04 2.98869E-03 8.20556E-06-5.56519E-05 3.38180E-05
 -1       296-1.02715E-04-9.80883E-05 3.30286E-04 1.11899E-06-1.65621E-05-2.39679E-05
 -1       297-1.77430E-04-1.68858E-04 5.74905E-04-5.77727E-07-2.29152E-05-3.93509E-05
 -1       298 1.24620E-05-5.00093E-04 1.33286E-03-1.86102E-04 5.41961E-05-2.40017E-04
 -1       299-2.21982E-04-2.18645E-04 7.29049E-04 2.45332E-06-2.63043E-05-3.44473E-05
 -1       300 1.84842E-06 3.09263E-06-7.41064E-06-7.55495E-07-2.01419E-06 1.72239E-05
 -1       301-3.27671E-04-3.17277E-04 1.07423E-03-4.67163E-07-3.11298E-05-5.34895E-05
 -1       302-3.90585E-04-3.91574E-04 1.29890E-03 4.69962E-06-3.54218E-05-4.46202E-05
 -1       303-5.20668E-04-5.15361E-04 1.73100E-03 3.28243E-06-3.98751E-05-5.99687E-05
 -1       304-7.53689E-05-6.98853E-05 2.36466E-04-6.37162E-07-1.40357E-05 5.28102E-06
 -1       305-6.00449E-04-6.13617E-04 2.02755E-03 6.47969E-06-4.87999E-05-3.92740E-05
 -1       306-8.22425E-04-1.08272E-03 3.34480E-03 3.61511E-05-4.49963E-05 1.42527E-04
 -1       307-1.31021E-04-1.22927E-04 4.17885E-04 5.28179E-07-1.90930E-05 5.45798E-06
 -1       308-1.01026E-04-9.41312E-05 3.20055E-04-1.65104E-06-1.79979E-05 1.07190E-05
 -1       309-2.31013E-04-9.96681E-04 2.54471E-03-8.82164E-05-4.15762E-05-3.24053E-04
 -1       310-1.79125E-04-1.43888E-03 3.38456E-03-1.43623E-04-3.55450E-05-2.17652E-04
 -1       311-7.75204E-04-8.33502E-04 2.71028E-03 9.66297E-06-5.11676E-05-5.31031E-06
 -1       312-3.87823E-04-1.77944E-03 4.37867E-03 6.85331E-06-1.96360E-04 1.31786E-04
 -1       313-1.88197E-04-1.81606E-04 6.11732E-04-6.73601E-07-2.22302E-05 1.11209E-05
 -1       314-1.53414E-04-1.43989E-04 4.91938E-04-6.87738E-07-2.22329E-05 3.63220E-05
 -1       315-2.66752E-04-2.59769E-04 8.72488E-04 6.00915E-07-2.51769E-05 9.25861E-07
 -1       316-2.26015E-04-2.20261E-04 7.37285E-04-1.61005E-06-2.26783E-05 1.03132E-05
 -1       317-3.51766E-04-3.47756E-04 1.16208E-03 2.57984E-07-3.10702E-05 1.57539E-05
 -1       318-3.00217E-04-2.97051E-04 9.90152E-04 7.10248E-07-3.31523E-05 4.60082E-05
 -1       319-2.93764E-04-1.61808E-03 4.02455E-03-9.96010E-05-1.66315E-04-5.44498E-05
 -1       320-4.56347E-04-4.50861E-04 1.50912E-03 1.41466E-06-3.55370E-05-5.63707E-07
 -1       321-4.03016E-04-3.99805E-04 1.33174E-03-1.99805E-06-3.06673E-05 1.38442E-05
 -1       322-5.65991E-04-5.70598E-04 1.89579E-03 1.30233E-06-3.87322E-05 1.87810E-05
 -1       323-5.02541E-04-5.01067E-04 1.67049E-03 9.45298E-07-3.62146E-05 6.30817E-05
 -1       324-1.44281E-05-1.08627E-05 3.96855E-05-1.10118E-06-8.38096E-06-1.76309E-05
 -1       325-6.85295E-04-6.97737E-04 2.32050E-03 2.30967E-06-4.94316E-05 1.57108E-05
 -1       326-6.17772E-04-6.30348E-04 2.08752E-03-1.25151E-06-4.16822E-05 3.08726E-05
 -1       327-6.83915E-04-7.47122E-04 2.43283E-03 1.00665E-06-1.56933E-05 6.86807E-05
 -1       328-7.71629E-04-8.41646E-04 2.73447E-03 3.48203E-06-4.17800E-05 5.63590E-05
 -1       329-7.08641E-04-7.51880E-04 2.46230E-03 1.73082E-07-4.95007E-05 8.51860E-05
 -1       330-7.94922E-04-9.18261E-04 2.92908E-03-8.41808E-07-5.39173E-05 8.46794E-05
 -1       331-5.20275E-04-1.44967E-03 3.90192E-03-8.95493E-06-1.32379E-04 9.49267E-05
 -1       332 1.44391E-04 1.47015E-04 6.66729E-04 1.07314E-04 4.48108E-04 4.49463E-04
 -1       333-5.35923E-07 2.49109E-07-7.20216E-08-2.00816E-07-1.29566E-06-1.41997E-06
 -1       334 4.40734E-06 1.24611E-06-5.15668E-06-1.64740E-06-8.37347E-07 1.05506E-05
 -1       335 1.14875E-06 1.81314E-06-5.98520E-06-5.49897E-07-9.14767E-07 8.19993E-06
 -1       336 2.10592E-06 1.23947E-06-7.57818E-06 1.91105E-07-3.53838E-06 1.09083E-05
 -1       337 8.65021E-05-1.70431E-04 3.51292E-04-1.15017E-04 6.11371E-05-2.27136E-04
 -1       338 2.35798E-05-2.01811E-04 2.52531E-04-5.84194E-05 1.17576E-04-8.22477E-05
 -1       339 1.67715E-05-1.61892E-04 1.06287E-03-1.31984E-04 7.19794E-05-1.28818E-04
 -1       340-1.78495E-04-2.56522E-04 1.17444E-03 7.65928E-06 1.73873E-04 3.04884E-04
 -1       341-1.41145E-04-1.69723E-04 6.81919E-04-3.51461E-05 1.66565E-04 2.24937E-04
 -1       342-1.99097E-04-2.78208E-04 1.18176E-03 1.18266E-04 1.97920E-04 4.04479E-04
 -1       343-3.34322E-04-6.50269E-04 2.49856E-03 2.14896E-04 8.20714E-05 5.44735E-04
 -1       344-5.04780E-04-1.03844E-03 2.94888E-03 1.57140E-04 5.13009E-05 6.71925E-04
 -1       345-1.15475E-04-3.76552E-04 1.19237E-03 4.34652E-05 1.21682E-04 2.11643E-04
 -1       346-3.15613E-04-3.10033E-04 1.22713E-03 5.15645E-05 1.15326E-04 1.22093E-04
 -1       347-6.78664E-04-7.99099E-04 2.40497E-03 2.20906E-05 3.75327E-05 4.19507E-04
 -1       348-3.18134E-04-3.73423E-04 1.45698E-03 7.06969E-05-3.06966E-05 1.02085E-04
 -1       349-3.06879E-04-2.04945E-04 1.10054E-03-1.59841E-06 1.38472E-05 6.60219E-05
 -1       350-7.63116E-04-8.29705E-04 2.48510E-03 5.84244E-05-2.39437E-05 2.78551E-04
 -1       351-2.56086E-04-3.67990E-04 1.32716E-03 7.80635E-05-5.47267E-05 8.29336E-05
 -1       352-2.49902E-04-1.70223E-04 8.55108E-04-2.75034E-05 6.37719E-06-1.04565E-05
 -1       353-6.91522E-04-7.91793E-04 2.36306E-03 6.62252E-06-3.42274E-05 1.50541E-04
 -1       354-1.88505E-04-1.94337E-04 9.08745E-04 5.04209E-05-7.33889E-05-1.66507E-05
 -1       355-1.92398E-04-2.38018E-04 9.55893E-04 6.14212E-05-3.52669E-05 4.08716E-05
 -1       356-6.27320E-04-6.34507E-04 2.00477E-03-3.44252E-06-3.70978E-05 3.32131E-05
 -1       357-1.48347E-04-1.53583E-04 7.55476E-04 2.19372E-05 5.81763E-05-5.35668E-05
 -1       358-1.12969E-04-5.43955E-05 3.93075E-04-7.20597E-05-7.19842E-05-1.07544E-05
 -1       359-5.05000E-04-5.38955E-04 1.63048E-03-2.61041E-05-2.20159E-05-4.42582E-05
 -1       360-2.14060E-04-2.67259E-04 9.08056E-04 5.44646E-06 1.87143E-05-5.65322E-05
 -1       361-2.03528E-04-1.21833E-04 6.39835E-04-2.21131E-05-2.35898E-05-3.46657E-05
 -1       362-5.49576E-04-5.25023E-04 1.65776E-03-1.33071E-05-5.83831E-05-1.30515E-04
 -1       363-8.46381E-05-8.10740E-05 5.06065E-04 2.34132E-05-4.86380E-05-5.18537E-05
 -1       364-1.21700E-04-7.00525E-05 3.23284E-04-1.24279E-05-9.15274E-05 3.65974E-06
 -1       365-2.52322E-04-2.84498E-04 8.96899E-04 4.47555E-06-9.78347E-05-5.46969E-06
 -1       366-6.00103E-04-5.65443E-04 1.86546E-03 2.74884E-05-5.64521E-05-9.95684E-05
 -1       367-4.44474E-04-4.74192E-04 1.59416E-03 2.90343E-05-8.02003E-05-5.39402E-05
 -1       368-1.26508E-04-1.56572E-04 6.51794E-04 2.66964E-05-2.30979E-06-9.27015E-05
 -1       369-1.29698E-04-6.06770E-05 3.98165E-04-2.17458E-05-4.27463E-05-4.43362E-05
 -1       370-3.86916E-04-3.89777E-04 1.16859E-03-1.19554E-05-7.43665E-05-1.16830E-04
 -1       371-1.50354E-04-1.44954E-04 6.46898E-04 2.22347E-06-1.97985E-05-5.34612E-05
 -1       372-1.63287E-04-8.65047E-05 4.81139E-04-1.69185E-05-5.69804E-05-5.11361E-05
 -1       373-4.29883E-04-4.00179E-04 1.28440E-03-9.18926E-06-5.78790E-05-1.39334E-04
 -1       374-1.03140E-04-1.47475E-04 5.63203E-04 1.84898E-05-2.72899E-06-3.46016E-05
 -1       375-1.06689E-04-5.31331E-05 3.50681E-04-2.08272E-05-5.41231E-05-1.96376E-06
 -1       376-4.00502E-04-3.65090E-04 1.15691E-03-2.71445E-06-4.40023E-05-1.25221E-04
 -1       377-1.61078E-04-9.58883E-05 4.91485E-04-1.35600E-06-5.54070E-05-4.06913E-05
 -1       378-1.43057E-04-1.48304E-04 6.23530E-04 2.02350E-05-3.09282E-05-6.86459E-05
 -1       379-3.69093E-04-3.54630E-04 1.12222E-03-1.78593E-06-4.44549E-05-1.24741E-04
 -1       380-7.91456E-05-9.87354E-05 4.16222E-04 3.35716E-06-2.10959E-05-3.41263E-05
 -1       381-8.51181E-05-4.44802E-05 2.62925E-04-1.57123E-05-6.14837E-05-3.47009E-05
 -1       382-3.27712E-04-3.14892E-04 9.68589E-04-3.70025E-06-2.95738E-05-9.97020E-05
 -1       383-8.98930E-05-1.05690E-04 4.28146E-04 8.10769E-06-2.35656E-05-5.17148E-05
 -1       384-9.63224E-05-5.25166E-05 2.99889E-04-1.32040E-05-4.97854E-05-3.31789E-05
 -1       385-2.75155E-04-2.69831E-04 8.28138E-04-2.94687E-06-4.55055E-05-1.07616E-04
 -1       386-6.37138E-05-7.97753E-05 3.34312E-04 3.38635E-06-2.24561E-05-2.97400E-05
 -1       387-7.04267E-05-3.52463E-05 2.11369E-04-1.35555E-05-5.02594E-05-2.03651E-05
 -1       388-2.39781E-04-2.35762E-04 7.17437E-04-3.51927E-06-2.92931E-05-9.27056E-05
 -1       389-9.13489E-05-4.90841E-05 2.78712E-04-5.84535E-06-4.30602E-05-3.16387E-05
 -1       390-8.48920E-05-8.78486E-05 3.69787E-04 8.78122E-06-2.41752E-05-4.79641E-05
 -1       391-2.27116E-04-2.22862E-04 6.89306E-04-1.94946E-06-3.60831E-05-9.60468E-05
 -1       392-4.56487E-05-5.82315E-05 2.41656E-04 1.56345E-06-2.00208E-05-2.53996E-05
 -1       393-5.02986E-05-2.52889E-05 1.51815E-04-8.98404E-06-4.34511E-05-2.08755E-05
 -1       394-1.92571E-04-1.85398E-04 5.70955E-04-7.81507E-07-2.22985E-05-7.22973E-05
 -1       395-4.99361E-05-5.87353E-05 2.35092E-04 3.45702E-06-2.08499E-05-3.81737E-05
 -1       396-5.42461E-05-2.81559E-05 1.65417E-04-7.57867E-06-3.58886E-05-2.57182E-05
 -1       397-1.55266E-04-1.53679E-04 4.68645E-04-1.15918E-06-3.22546E-05-7.59870E-05
 -1       398-3.40591E-05-4.15869E-05 1.73989E-04 1.03463E-06-1.92689E-05-2.36208E-05
 -1       399-3.75287E-05-1.72422E-05 1.08962E-04-7.08212E-06-3.46028E-05-1.72403E-05
 -1       400-1.30199E-04-1.27826E-04 3.88627E-04-1.39218E-06-2.24840E-05-6.55430E-05
 -1       401-4.70010E-05-2.32581E-05 1.38232E-04-2.79491E-06-2.90023E-05-2.44491E-05
 -1       402-4.32185E-05-4.24944E-05 1.81354E-04 3.63790E-06-1.95635E-05-3.28568E-05
 -1       403-1.17439E-04-1.14916E-04 3.54985E-04-8.76869E-07-2.43960E-05-6.50767E-05
 -1       404-2.54362E-05-2.06321E-05 7.67949E-05-2.76771E-06-1.45440E-05-1.57243E-05
 -1       405-2.37064E-05-7.66363E-06 6.68220E-05-3.47127E-06-2.52608E-05-1.45252E-05
 -1       406-9.56230E-05-9.02363E-05 2.80346E-04 6.89044E-08-1.54007E-05-4.91595E-05
 -1       407-1.72494E-05-2.54370E-05 7.88998E-05 4.26076E-06-3.11552E-05-9.00042E-06
 -1       408-6.92133E-06-3.97979E-06 3.35456E-05-5.64368E-06-2.12246E-05-1.55590E-05
 -1       409-2.47970E-05-3.96803E-05 1.12316E-04 1.34149E-06-2.23774E-05-2.08743E-05
 -1       410-6.04081E-05-5.51908E-05 1.86946E-04-5.02245E-07-2.17281E-05-3.57919E-05
 -1       411-7.10627E-05-6.83046E-05 2.26244E-04 2.53695E-06-1.45256E-05-4.38710E-05
 -1       412-2.02569E-05-1.45423E-05 5.58772E-05-5.29541E-06-8.86153E-06-1.27273E-05
 -1       413-1.23286E-05-1.02188E-05 4.56362E-05-9.74599E-07-1.14740E-05-2.03605E-05
 -1       414-1.42808E-05-1.98033E-05 6.74054E-05 4.13108E-06-1.55917E-05-1.81695E-05
 -1       415-2.06256E-05-1.68191E-05 6.02460E-05-1.23280E-06-1.29576E-05-1.96055E-05
 -1       416-4.90214E-05-4.48015E-05 1.57642E-04 2.29033E-07-1.15265E-05-3.85229E-05
 -1       417-4.30084E-05-4.22354E-05 1.31186E-04-1.64146E-06-1.34152E-05-3.05651E-05
 -1       418-9.40167E-06-7.31633E-06 3.34739E-05 1.46221E-06-1.45509E-05-1.84871E-05
 -1       419-6.31822E-06-4.86606E-06 2.48080E-05-1.81258E-06-9.37388E-06-1.28641E-05
 -1       420-3.36754E-05-2.59690E-05 8.65861E-05 1.80130E-07-1.03966E-05-2.28257E-05
 -1       421-3.81542E-06-3.71535E-06 1.57450E-05-8.74499E-07-6.66549E-06-9.15451E-06
 -1       422-2.83120E-06 2.05936E-07 6.71492E-06-1.49201E-06-9.72123E-06-7.50988E-06
 -1       423-1.88683E-05-1.51412E-05 4.78451E-05-2.84649E-06-9.02396E-06-1.91731E-05
 -1       424-2.95910E-06-2.88129E-06 1.00955E-05-3.31734E-07-5.80491E-06-9.34959E-06
 -1       425-3.28771E-06-1.21910E-06 6.21507E-06-1.98970E-07-7.83359E-06-7.12921E-06
 -1       426-1.14083E-05-8.18686E-06 3.11037E-05-3.90884E-07-8.31949E-06-1.64907E-05
 -1       427-1.82009E-06-6.30587E-07 3.14443E-06-6.28003E-07-3.21814E-06-4.91356E-06
 -1       428-1.57221E-06-5.37361E-07 1.80381E-06-2.04739E-07-4.40407E-06-5.23248E-06
 -1       429-2.89963E-06-2.47867E-06 8.72910E-06-2.93090E-07-5.34085E-06-7.82349E-06
 -1       430-7.45101E-06-4.08567E-06 1.38180E-05-1.52153E-07-4.13685E-06-1.00839E-05
 -1       431-9.97734E-06-6.81378E-06 2.60200E-05 9.66520E-08-6.61976E-06-1.27031E-05
 -1       432-1.48598E-06 4.50987E-07 6.40361E-07-2.80549E-07-2.48757E-06-3.31408E-06
 -1       433-2.63831E-06 4.48853E-07 1.46117E-06-2.91909E-07-1.23744E-06-3.05877E-06
 -1       434-3.63642E-06-9.88960E-07 5.98443E-06-5.88171E-07-2.96957E-06-6.39949E-06
 -1       435-5.20239E-06 1.26343E-06 3.04818E-06-2.83407E-07-6.43440E-07-1.96208E-06
 -1       436-8.02792E-06 4.55537E-07 6.64280E-06-8.43504E-07-1.47141E-06 6.84425E-06
 -1       437-7.71726E-06 6.39597E-07 7.04157E-06 1.48490E-07-1.11912E-07 2.74983E-06
 -1       438-7.06341E-06-1.03466E-06 7.87923E-06-7.58801E-07-2.13987E-06-1.21418E-06
 -1       439-9.48089E-06-2.01433E-06 1.46292E-05 3.92104E-07-2.10474E-06 2.64043E-06
 -1       440-6.90170E-06-1.09096E-06 9.32865E-06-1.15577E-06-2.74626E-06-4.19578E-06
 -1       441-5.99849E-06 7.45024E-07 4.56705E-06-2.81352E-07-6.97832E-07 1.16863E-05
 -1       442-1.29087E-06-2.11299E-07 1.39341E-06 2.89708E-07-2.72479E-06 1.48369E-05
 -1       443-7.07297E-06-1.76369E-06 1.14002E-05 5.56436E-07-3.52987E-06 1.40890E-05
 -1       444 1.72539E-06 7.14651E-07-3.03430E-06-1.94846E-06-2.97753E-07 1.40999E-05
 -1       445 1.30219E-07 2.73729E-07-4.13709E-07 3.49538E-07-2.59507E-06 1.92380E-05
 -1       446 2.29819E-05-2.20039E-04 5.51456E-04-3.60161E-05-3.01817E-05-1.35476E-04
 -1       447 6.97407E-05-2.35506E-04 5.15428E-04 4.44141E-06 4.61959E-06-2.06696E-04
 -1       448-8.34823E-05-5.61465E-04 1.52830E-03-9.53122E-05 1.25572E-04-3.51325E-04
 -1       449 1.99879E-05-7.64565E-05 1.57290E-04 7.24048E-06 6.48411E-06 2.01960E-06
 -1       450 5.61701E-05-6.81662E-05 1.44051E-04-1.72518E-05-1.21159E-05-4.07145E-05
 -1       451-1.87762E-04-4.44543E-04 1.17095E-03-2.07395E-05 4.15110E-05-9.81627E-05
 -1       452-5.41854E-05-7.09126E-05 2.29610E-04 9.79290E-06-1.55549E-05 1.02466E-04
 -1       453-4.54594E-05-7.08741E-05 2.58003E-04-2.84480E-06-5.33442E-06 8.34517E-05
 -1       454-2.54575E-04-3.56058E-04 1.12305E-03-6.87147E-06-3.42112E-05 5.75459E-05
 -1       455-9.50734E-05-1.17334E-04 3.94850E-04-1.04726E-05-9.42062E-06 7.55161E-05
 -1       456-2.94326E-04-3.49701E-04 1.11047E-03-1.80141E-05-3.66331E-05 1.11756E-04
 -1       457-3.45822E-05-7.02081E-05 1.63130E-04 9.66093E-06-2.15540E-05 1.01044E-04
 -1       458-2.92016E-05-6.26532E-05 1.60523E-04-1.41876E-05-2.38281E-05 1.00981E-04
 -1       459-2.34793E-04-2.27783E-04 7.90202E-04-5.92247E-06-3.42486E-05 1.55185E-04
 -1       460-2.73837E-05-3.42720E-05 1.19419E-04 1.06416E-05 2.41414E-06 1.07350E-04
 -1       461-2.67032E-05-4.29723E-05 1.28741E-04-8.52400E-06-2.16521E-05 1.00422E-04
 -1       462-1.86182E-04-1.92086E-04 6.23679E-04-1.02318E-05-5.50237E-05 1.64881E-04
 -1       463-2.21084E-05-3.16060E-05 8.73832E-05 1.22360E-05-2.16594E-06 8.81195E-05
 -1       464-1.55160E-05-3.56723E-05 8.64715E-05-7.45809E-06-2.94212E-05 9.19986E-05
 -1       465-1.44420E-04-1.50683E-04 4.89225E-04-1.52135E-05-5.18211E-05 1.55822E-04
 -1       466-1.90910E-05-2.59222E-05 6.95309E-05 2.83572E-06-1.25858E-05 8.04828E-05
 -1       467-1.34653E-05-2.93567E-05 6.76332E-05-7.86084E-06-1.60786E-05 7.98537E-05
 -1       468-1.20865E-04-1.06407E-04 3.78149E-04 1.88697E-06-2.07599E-05 1.37639E-04
 -1       469-1.40131E-05-1.80230E-05 4.64151E-05 3.14455E-06-7.58293E-06 6.93365E-05
 -1       470-1.32363E-05-1.81222E-05 3.89789E-05-6.57429E-06-1.20870E-05 7.12682E-05
 -1       471-9.16860E-05-7.32972E-05 2.80278E-04-1.61687E-06-2.69366E-05 1.25463E-04
 -1       472-7.74334E-06-9.52281E-06 2.68491E-05 4.71477E-06-4.17897E-06 5.85512E-05
 -1       473-8.91281E-06-1.09541E-05 2.24741E-05-4.37438E-06-1.01310E-05 5.98317E-05
 -1       474-6.72729E-05-4.89182E-05 1.96334E-04-2.65031E-07-2.26596E-05 1.07291E-04
 -1       475 2.03844E-07-2.45052E-06 2.63954E-06 1.88474E-07-5.07272E-06 4.26310E-05
 -1       476-9.10650E-08 1.12769E-06-6.51095E-06-8.27894E-07-5.94509E-06 4.86310E-05
 -1       477-4.33407E-05-2.95331E-05 1.16921E-04-7.26312E-06-1.95407E-05 8.90169E-05
 -1       478 1.43843E-06-8.93764E-06 4.66191E-06 2.82554E-07-5.07067E-06 3.27780E-05
 -1       479 2.10685E-06 5.29938E-07-9.83692E-06-2.06194E-06-6.02146E-06 3.78934E-05
 -1       480-2.90418E-05-3.12585E-05 1.08226E-04 1.30862E-06-9.18290E-06 8.06991E-05
 -1       481-6.37625E-06-7.35663E-06 2.06469E-05 1.40583E-06-1.01471E-05 5.19968E-05
 -1       482-2.48042E-05-1.93470E-05 7.60376E-05-4.44758E-06-1.53995E-05 7.03101E-05
 -1       483 6.66410E-07 1.96022E-06-7.41027E-06 2.69359E-07-4.66499E-06 2.50836E-05
 -1       484 1.78710E-06 9.85739E-06-1.46590E-05-9.40364E-07-5.21688E-06 2.70538E-05
 -1       485-9.26622E-06-9.75920E-06 3.02416E-05-6.58883E-07-1.21846E-05 5.39919E-05
 -1       486 1.74360E-06 2.65829E-06-8.66181E-06 1.48939E-06-3.00895E-06 8.70172E-06
 -1       487 1.91899E-06 7.50106E-06-1.83321E-05-5.25809E-07-2.54532E-06 1.17506E-05
 -1       488 2.08925E-06 3.39111E-06-8.78584E-06-1.49847E-06-4.49849E-06 2.58119E-05
 -1       489 1.98620E-06 2.57416E-06-7.91088E-06-1.25718E-06-3.96175E-06 2.46839E-05
 -1       490-1.86805E-06-6.57578E-06 1.25626E-05-1.60806E-07-1.18599E-05 3.96393E-05
 -1       491 2.14498E-06 3.21526E-06-8.20285E-06 1.43503E-07-1.81290E-06 1.65190E-05
 -1       492-2.36012E-04-1.15235E-03 3.52489E-03 2.86538E-04-1.40901E-04 4.65500E-04
 -1       493-2.34424E-04-1.16847E-03 4.35978E-03-1.62721E-04-4.67909E-04 6.37083E-05
 -1       494-2.21152E-04-1.61308E-03 4.27011E-03 2.02709E-05-2.56793E-04 1.93983E-04
 -1       495-4.79440E-04-1.41475E-03 3.63286E-03 1.06051E-04 6.73495E-06 4.24913E-04
 -1       496-2.30131E-04-1.48753E-03 3.96549E-03 2.40860E-05-1.43531E-04 3.36520E-04
 -1       497-4.51792E-04-1.81238E-03 4.25834E-03 1.16430E-04-1.39064E-04 2.00702E-04
 -1       498-8.98026E-05-1.41466E-03 3.93678E-03-1.07211E-04-2.53508E-04-1.58600E-04
 -1       499-9.21040E-05-9.18062E-04 3.25114E-03-1.16973E-04-1.71116E-04-2.14413E-04
 -1       500-1.72961E-04-1.05158E-03 4.15760E-03-1.35387E-04-3.24472E-04-4.35456E-05
 -1       501-2.39088E-04-1.57367E-03 3.72932E-03-9.15567E-05-8.36379E-05-9.84032E-05
 -1       502-3.59062E-04-1.63783E-03 4.21783E-03-9.37649E-05-1.89923E-04 2.89346E-05
 -1       503 9.52428E-07-3.52814E-04 2.07959E-03-1.43060E-04-8.34558E-05-2.54272E-04
 -1       504-3.89119E-05-1.00064E-03 2.46867E-03-1.41806E-04 2.94591E-05-2.77703E-04
 -1       505-6.24226E-05-5.63974E-05 1.99050E-04 9.74320E-07-1.50915E-05-3.14377E-05
 -1       506-7.61153E-05-7.19227E-05 2.49570E-04-7.63798E-07-1.61351E-05-2.97863E-05
 -1       507-9.00014E-05-8.28763E-05 2.84698E-04 5.46674E-07-1.87382E-05-3.08044E-05
 -1       508-9.22279E-05-8.35519E-05 2.84597E-04 9.50940E-07-1.74922E-05-2.08631E-05
 -1       509-9.23314E-05-9.19686E-05 3.01358E-04 2.83853E-06-1.36637E-05-4.23951E-05
 -1       510-9.36591E-05-8.73376E-05 2.94541E-04 3.16466E-06-1.60850E-05-3.35537E-05
 -1       511-1.06829E-04-1.03285E-04 3.48106E-04-1.41614E-06-1.64294E-05-2.91920E-05
 -1       512-6.46788E-05-6.09592E-05 2.06525E-04-4.43374E-07-1.47320E-05-2.35915E-05
 -1       513-8.40964E-04-1.07510E-03 3.35204E-03 8.45090E-06-6.07433E-05 9.81596E-05
 -1       514-7.93938E-04-1.07476E-03 3.31780E-03-6.15889E-06-4.65094E-05 1.01379E-04
 -1       515-7.84892E-04-1.11432E-03 3.38611E-03 7.63466E-06-6.12833E-05 1.09664E-04
 -1       516-7.37910E-04-1.19463E-03 3.55168E-03 5.07968E-06-8.58601E-05 1.02679E-04
 -1       517-8.14296E-04-1.19324E-03 3.57736E-03 1.46545E-05-6.67849E-05 1.41211E-04
 -1       518-8.36853E-04-1.00179E-03 3.18414E-03 1.66040E-05-5.13923E-05 7.31351E-05
 -1       519-8.37048E-04-1.03386E-03 3.28484E-03 1.17306E-05-4.35168E-05 9.47964E-05
 -1       520-8.29005E-04-1.10151E-03 3.39405E-03 2.48056E-05-5.99383E-05 1.27342E-04
 -1       521-7.86797E-04-1.19999E-03 3.58773E-03 2.79999E-05-6.28803E-05 1.70202E-04
 -1       522-8.27751E-04-1.01113E-03 3.13334E-03 1.08511E-05-3.38087E-05 9.98108E-05
 -1       523-7.72078E-04-9.84421E-04 3.06326E-03 3.36612E-06-6.03925E-05 1.00501E-04
 -1       524-7.33689E-04-1.03153E-03 3.13310E-03-4.38967E-06-6.00898E-05 7.84134E-05
 -1       525-6.68642E-04-9.48030E-04 2.89140E-03-1.23934E-05-6.05002E-05 7.19861E-05
 -1       526-6.67588E-04-1.02984E-03 3.07120E-03-2.02121E-05-7.12011E-05 6.41716E-05
 -1       527-5.71523E-04-1.08041E-03 3.10510E-03-2.47552E-05-5.47401E-05-1.75442E-05
 -1       528-6.37300E-04-1.17956E-03 3.37389E-03-2.58305E-05-6.39857E-05 4.99268E-05
 -1       529-6.07409E-04-1.25949E-03 3.54664E-03-6.33007E-06-8.53570E-05 6.86287E-05
 -1       530-8.19678E-04-9.67540E-04 3.07714E-03-1.07567E-06-6.53807E-05 7.80287E-05
 -1       531-7.56952E-04-9.34539E-04 2.94166E-03-4.10459E-06-4.95073E-05 9.85162E-05
 -1       532-8.27065E-04-9.39407E-04 3.00365E-03 1.06548E-05-4.13506E-05 3.89778E-05
 -1       533-8.35410E-04-9.86289E-04 3.16258E-03-6.71629E-07-5.19360E-05 6.91376E-05
 -1       534-8.17832E-04-9.11524E-04 2.97006E-03 1.43019E-05-3.88635E-05 6.65425E-05
 -1       535-6.35459E-04-8.45333E-04 2.60274E-03-1.69669E-05-5.63967E-05 8.94613E-05
 -1       536-5.75655E-04-8.49700E-04 2.56775E-03-8.94605E-06-4.84484E-05 4.74186E-05
 -1       537-6.87433E-04-8.55195E-04 2.68803E-03-3.41317E-06-5.74644E-05 1.07347E-04
 -1       538-6.01579E-04-7.56305E-04 2.38557E-03-1.05284E-05-5.73381E-05 1.09583E-04
 -1       539-7.17797E-04-8.45378E-04 2.68749E-03-3.59878E-06-5.54368E-05 1.09158E-04
 -1       540-2.97874E-05-2.32867E-05 8.73125E-05 7.11427E-07-8.60208E-06-1.45065E-05
 -1       541-2.60584E-05-2.12527E-05 7.35746E-05-1.18940E-06-8.03101E-06-9.34276E-06
 -1       542-3.43911E-05-2.92481E-05 1.00596E-04 2.46742E-07-6.66196E-06-7.74642E-06
 -1       543-4.20333E-05-3.54839E-05 1.25880E-04-7.61381E-07-9.96645E-06-3.37574E-07
 -1       544-3.79186E-05-2.95352E-05 1.06004E-04-1.61860E-06-5.60011E-06 4.68633E-06
 -1       545-2.88669E-05-2.67630E-05 8.86790E-05-1.49566E-06-9.27836E-06-2.02681E-05
 -1       546-2.25978E-05-1.81404E-05 6.72155E-05-2.84599E-07-7.46751E-06-1.79910E-05
 -1       547-4.84976E-05-4.11509E-05 1.44074E-04-7.48138E-07-1.26686E-05-1.28387E-05
 -1       548-5.17474E-05-4.24698E-05 1.58756E-04 3.81498E-06-9.77693E-06 4.14621E-06
 -1       549-4.61124E-05-4.23194E-05 1.46837E-04-1.52941E-06-1.26299E-05-2.06416E-05
 -1       550-3.62763E-05-3.32943E-05 1.15283E-04 1.81964E-06-9.77470E-06-2.06895E-05
 -1       551-2.32451E-05-1.77412E-05 6.21449E-05 1.05072E-06-6.69212E-06-2.89953E-06
 -1       552-2.01335E-05-1.47756E-05 5.51961E-05-5.14400E-07-6.15054E-06-1.07586E-05
 -1       553-2.78205E-05-2.27552E-05 7.81444E-05 1.38651E-06-8.30849E-06 6.76723E-06
 -1       554-3.36508E-05-2.68133E-05 9.79742E-05 5.43258E-07-9.55936E-06 1.56621E-05
 -1       555-2.33485E-05-1.74837E-05 5.97054E-05 3.05099E-07-5.59860E-06 1.60634E-06
 -1       556-2.12127E-05-1.57065E-05 5.51822E-05-1.18332E-06-5.43592E-06 9.91913E-06
 -1       557-1.84750E-05-1.06481E-05 4.45002E-05-5.30007E-07-5.98232E-06-2.69923E-08
 -1       558-1.76885E-05-1.41988E-05 4.86453E-05 2.45486E-08-9.68056E-06-1.82354E-05
 -1       559-1.55806E-05-1.15638E-05 4.45823E-05-2.49274E-07-8.62496E-06-1.45373E-05
 -1       560-1.43398E-05-9.28864E-06 3.72930E-05 5.97374E-07-6.74900E-06-1.08688E-05
 -1       561-6.01186E-05-5.19988E-05 1.80326E-04-4.87913E-07-1.15489E-05 1.04620E-05
 -1       562-6.55219E-05-6.01044E-05 2.03830E-04-3.95688E-06-1.20724E-05-2.75265E-07
 -1       563-5.63718E-05-4.62204E-05 1.68797E-04 2.97211E-06-1.27832E-05-2.11698E-05
 -1       564-6.79542E-05-6.11472E-05 2.09520E-04-1.48016E-06-1.41075E-05-1.52957E-05
 -1       565-7.69511E-05-7.30401E-05 2.45266E-04 2.43487E-06-1.10938E-05-7.92905E-06
 -1       566-2.64084E-05-2.06282E-05 7.25728E-05-2.09862E-06-5.58461E-06 2.34414E-05
 -1       567-3.55433E-05-2.73578E-05 1.00024E-04 5.28693E-07-6.58677E-06 2.46661E-05
 -1       568-3.16456E-05-2.69690E-05 9.66482E-05-5.99993E-07-1.17348E-05 3.75279E-05
 -1       569-4.31525E-05-3.64329E-05 1.30317E-04-6.44470E-07-1.15255E-05 3.14542E-05
 -1       570-5.68789E-05-5.11667E-05 1.75569E-04 4.23014E-09-1.27676E-05 2.59011E-05
 -1       571-5.48552E-05-4.93755E-05 1.69507E-04-9.09502E-07-7.75960E-06 4.03714E-05
 -1       572-7.15161E-05-6.63232E-05 2.24887E-04-1.98770E-06-1.45780E-05 1.98661E-05
 -1       573-8.27392E-05-7.60314E-05 2.63174E-04-2.22527E-06-1.23811E-05 5.76169E-05
 -1       574-6.73198E-05-6.34986E-05 2.21573E-04-8.95415E-08-1.82213E-05 6.98428E-05
 -1       575-9.19317E-05-8.55635E-05 2.92117E-04 2.60947E-06-2.05815E-05 6.43580E-05
 -1       576-1.02667E-04-9.54223E-05 3.30684E-04-2.73819E-06-1.41217E-05 7.86400E-05
 -1       577-1.14635E-04-1.10973E-04 3.80005E-04-1.40850E-06-1.80995E-05 6.34978E-05
 -1       578-8.88197E-05-8.02835E-05 2.80626E-04 2.74992E-06-1.57078E-05 4.14351E-05
 -1       579-6.63466E-05-6.06778E-05 2.06891E-04-2.12038E-06-1.08647E-05 4.83142E-05
 -1       580-1.40933E-04-1.30428E-04 4.46354E-04 5.03717E-06-2.43680E-05 5.62095E-05
 -1       581-1.31693E-04-1.22758E-04 4.20100E-04-1.58976E-06-2.49880E-05 3.86150E-05
 -1       582-8.73409E-05-7.73198E-05 2.72347E-04 2.14034E-06-1.40181E-05 2.55332E-05
 -1       583-1.03815E-04-9.90107E-05 3.30838E-04-5.86213E-06-1.88473E-05 2.86523E-05
 -1       584-1.16166E-04-1.07454E-04 3.65379E-04-1.63659E-06-2.04595E-05 7.50373E-06
 -1       585-1.18627E-04-1.12674E-04 3.83448E-04 4.15868E-06-1.74675E-05 2.64953E-05
 -1       586-1.42454E-04-1.36585E-04 4.64284E-04-7.13287E-07-1.45077E-05 1.88900E-05
 -1       587-5.96034E-05-5.50334E-05 1.88450E-04-4.83347E-07-1.30797E-05 8.35133E-05
 -1       588-4.94683E-05-4.98273E-05 1.64315E-04-4.38510E-06-1.90343E-05 7.02891E-05
 -1       589-7.23077E-05-7.64749E-05 2.57053E-04-1.36049E-09-1.42856E-05 9.19943E-05
 -1       590-1.01585E-04-9.67235E-05 3.27186E-04 1.94990E-06-1.83456E-05 8.94033E-05
 -1       591-3.41676E-05-4.34150E-05 1.31327E-04-1.67711E-06-1.25037E-05 7.89955E-05
 -1       592-5.64924E-05-5.59790E-05 1.88492E-04-9.58205E-07-2.09941E-05 8.34553E-05
 -1       593-5.70946E-05-5.38939E-05 1.84756E-04-2.44042E-06-1.13079E-05 8.95888E-05
 -1       594-3.17433E-05-3.95851E-05 1.13479E-04-1.24224E-06-1.29452E-05 6.99493E-05
 -1       595-4.27348E-05-3.94806E-05 1.36274E-04 2.40882E-06-8.84389E-06 6.51097E-05
 -1       596-4.60092E-05-4.56573E-05 1.52783E-04 1.09328E-07-1.60412E-05 5.56835E-05
 -1       597-3.40234E-05-3.35301E-05 1.08339E-04-2.67652E-06-1.38107E-05 5.57415E-05
 -1       598-4.28383E-04-1.08372E-03 2.98858E-03-5.22674E-05-8.72187E-05-1.24154E-04
 -1       599-4.98588E-04-9.43958E-04 2.69977E-03-3.32468E-05-5.10999E-05-4.07962E-05
 -1       600-4.96488E-04-7.04491E-04 2.18462E-03-1.19361E-05-3.72569E-05 3.62406E-05
 -1       601-5.19866E-04-8.16556E-04 2.45208E-03-4.29091E-05-3.98465E-05-4.60450E-07
 -1       602-4.21538E-04-7.94846E-04 2.28337E-03-3.32778E-06-3.09272E-05-1.03052E-04
 -1       603-5.18735E-04-1.34291E-03 3.66036E-03-3.51142E-05-9.96834E-05 2.90537E-05
 -1       604-6.23282E-04-1.35876E-03 3.80306E-03-3.07785E-06-9.46106E-05 1.42065E-04
 -1       605-3.55961E-04-9.42355E-04 2.50361E-03-6.67577E-05-2.00478E-05-2.17740E-04
 -1       606-3.55179E-04-1.13097E-03 3.00223E-03-6.53594E-05-3.98283E-05-1.79192E-04
 -1       607-1.60155E-04-1.17679E-03 2.97462E-03-1.09324E-04-5.28639E-05-3.01895E-04
 -1       608-3.56526E-04-1.28751E-03 3.38850E-03-8.32966E-05-6.40447E-05-1.52307E-04
 -1       609-3.94436E-04-1.39541E-03 3.68701E-03-3.93121E-05-8.46674E-05-4.76715E-05
 -1       610-4.37689E-04-1.50545E-03 3.91476E-03-4.31174E-05-1.39783E-04 1.62130E-05
 -1       611-1.53737E-04-1.44752E-04 4.90615E-04-3.88611E-06-2.10718E-05 6.74867E-05
 -1       612-1.22973E-04-1.22965E-04 4.18287E-04 4.54429E-08-1.82897E-05 9.30529E-05
 -1       613-1.52832E-04-1.49137E-04 4.93996E-04 2.84964E-06-2.06041E-05 8.70071E-05
 -1       614-1.55315E-04-1.53042E-04 5.03523E-04 1.89970E-07-2.07317E-05 1.07685E-04
 -1       615-1.81344E-04-1.74478E-04 6.03129E-04-5.77111E-06-1.63522E-05 8.71463E-05
 -1       616-1.62472E-04-1.58923E-04 5.41584E-04-8.32492E-07-2.00698E-05 4.95399E-05
 -1       617-2.07465E-04-2.02989E-04 6.75141E-04-1.92749E-06-3.04091E-05 6.24294E-05
 -1       618-2.11205E-04-2.08189E-04 7.03499E-04 6.88374E-06-2.44037E-05 8.42030E-05
 -1       619-2.02334E-04-1.98531E-04 6.66406E-04 1.61498E-06-1.82982E-05 3.95130E-05
 -1       620-2.32803E-04-2.18664E-04 7.44609E-04-5.28405E-06-1.90684E-05 3.54760E-05
 -1       621-1.72945E-04-1.63212E-04 5.55249E-04-4.60506E-06-1.56899E-05 2.15610E-05
 -1       622-1.81916E-04-1.77269E-04 5.92160E-04-2.22502E-06-2.08118E-05 3.49513E-05
 -1       623-2.07056E-04-2.00856E-04 6.70027E-04-5.46626E-07-2.35737E-05 1.23889E-05
 -1       624-1.02223E-04-1.02510E-04 3.31875E-04-1.56498E-06-2.19016E-05 1.06426E-04
 -1       625-1.17038E-04-1.21089E-04 4.08207E-04 5.47886E-07-1.49194E-05 1.19501E-04
 -1       626-1.52695E-04-1.47222E-04 5.00024E-04-2.65234E-07-2.78326E-05 1.14123E-04
 -1       627-6.52868E-05-6.12852E-05 2.15232E-04-1.59429E-06-1.31026E-05 1.01256E-04
 -1       628-8.95786E-05-8.63944E-05 2.94868E-04-4.55389E-07-2.09321E-05 1.07725E-04
 -1       629-8.53968E-05-6.75871E-05 2.75977E-04 7.16533E-06-1.50230E-05 1.13260E-04
 -1       630-7.69155E-04-1.24377E-03 3.68151E-03 4.71188E-05-3.94747E-05 2.21072E-04
 -1       631-7.03050E-04-1.33781E-03 3.83249E-03 3.15697E-05-8.63479E-05 2.00627E-04
 -1       632-7.33277E-04-1.27456E-03 3.77371E-03 4.28852E-05-4.37906E-05 2.82821E-04
 -1       633-8.36219E-04-1.11642E-03 3.41067E-03 6.95591E-05-3.14702E-05 1.93836E-04
 -1       634-5.82939E-04-1.41983E-03 3.90828E-03 3.27282E-05-1.02419E-04 1.81759E-04
 -1       635-3.10609E-04-3.12194E-04 1.05763E-03-8.23227E-06-2.20942E-05 1.55563E-04
 -1       636-3.62131E-04-3.60150E-04 1.19497E-03 7.91853E-06-3.65468E-05 1.57665E-04
 -1       637-3.80691E-04-3.79949E-04 1.25809E-03 4.76044E-06-4.49962E-05 1.36775E-04
 -1       638-4.19276E-04-4.24897E-04 1.41179E-03-2.54054E-06-2.88434E-05 1.08037E-04
 -1       639-3.72218E-04-3.73578E-04 1.25301E-03 8.89648E-06-3.28595E-05 1.12093E-04
 -1       640-2.61120E-04-2.49463E-04 8.47921E-04-1.43115E-06-3.06932E-05 1.70665E-04
 -1       641-2.77629E-04-2.73047E-04 9.20205E-04 5.47047E-07-3.76185E-05 1.50341E-04
 -1       642-3.73648E-04-3.71203E-04 1.23047E-03-3.18120E-06-4.22863E-05 8.38076E-05
 -1       643-3.34829E-04-3.27328E-04 1.11927E-03-1.10669E-05-2.84319E-05 1.17718E-04
 -1       644-2.91019E-04-2.86862E-04 9.64066E-04-6.85865E-07-3.64383E-05 1.20327E-04
 -1       645-2.88748E-04-2.83946E-04 9.43585E-04 1.91561E-06-2.83076E-05 1.44373E-04
 -1       646-2.24256E-04-2.32420E-04 7.75678E-04-2.33945E-07-2.20565E-05 1.61110E-04
 -1       647-2.84267E-04-2.85815E-04 9.63507E-04-1.74500E-06-3.90142E-05 1.73548E-04
 -1       648-3.58302E-04-3.67366E-04 1.20713E-03-3.34196E-06-3.88889E-05 1.62040E-04
 -1       649-4.62269E-04-4.65442E-04 1.54809E-03 5.49954E-06-3.94534E-05 1.01042E-04
 -1       650-4.62118E-04-4.57712E-04 1.52805E-03-7.18352E-07-4.18918E-05 7.16316E-05
 -1       651-4.85528E-04-4.90147E-04 1.60979E-03-1.88512E-06-4.01326E-05 1.19550E-04
 -1       652-4.09304E-04-4.07825E-04 1.38067E-03-3.90930E-06-1.75113E-05 1.57676E-04
 -1       653-4.60388E-04-4.65512E-04 1.55408E-03 7.36437E-06-4.00163E-05 1.44567E-04
 -1       654-5.15363E-04-5.22807E-04 1.74224E-03 6.84931E-09-3.63583E-05 8.19514E-05
 -1       655-3.33129E-04-3.31620E-04 1.11247E-03-2.14197E-06-3.72730E-05 1.80154E-04
 -1       656-1.72683E-04-2.00473E-04 5.80219E-04-1.41177E-05-2.74430E-05 1.53696E-04
 -1       657-2.08498E-04-2.09356E-04 7.05827E-04-3.30972E-06-4.12074E-05 1.66210E-04
 -1       658-2.00109E-04-2.15650E-04 7.07095E-04 3.22677E-06-2.35718E-05 1.68406E-04
 -1       659-3.69185E-04-3.68013E-04 1.22932E-03 1.67891E-06-2.53703E-05 5.35908E-05
 -1       660-4.09434E-04-3.95139E-04 1.33409E-03-6.88597E-06-2.63542E-05 4.71965E-05
 -1       661-4.30189E-04-4.23406E-04 1.41251E-03-2.54470E-06-3.92243E-05 3.34277E-06
 -1       662-4.37658E-04-4.28367E-04 1.45415E-03 9.95897E-06-2.83594E-05 4.34810E-05
 -1       663-4.80405E-04-4.80935E-04 1.61122E-03-3.34936E-06-2.56533E-05 2.97053E-05
 -1       664-3.00553E-04-2.92205E-04 9.68773E-04-5.42593E-07-2.86280E-05 9.87067E-05
 -1       665-2.47544E-04-2.52632E-04 8.38449E-04-1.12060E-06-2.07217E-05 1.32616E-04
 -1       666-2.78684E-04-2.74637E-04 9.15248E-04 5.77491E-06-3.09496E-05 8.14010E-05
 -1       667-3.14705E-04-3.10835E-04 1.05072E-03-8.20933E-08-2.78459E-05 6.52310E-05
 -1       668-3.30276E-04-3.22888E-04 1.08082E-03-4.38016E-06-2.45267E-05 2.86840E-05
 -1       669-3.41655E-04-3.39673E-04 1.13042E-03-2.03144E-06-2.96804E-05 4.67673E-05
 -1       670-3.78304E-04-3.73926E-04 1.23981E-03 6.01024E-08-3.20332E-05 1.70537E-05
 -1       671-2.06774E-04-2.00443E-04 6.66550E-04-4.59471E-06-2.99131E-05 1.49842E-04
 -1       672-2.12352E-04-2.08546E-04 7.03916E-04 2.63109E-06-3.34898E-05 1.27835E-04
 -1       673-1.35152E-04-1.42770E-04 4.39918E-04-1.12144E-05-2.55838E-05 1.39821E-04
 -1       674-1.74229E-04-1.71167E-04 5.77783E-04 1.60991E-06-3.11272E-05 1.47840E-04
 -1       675-1.62341E-04-1.33193E-04 5.35863E-04 1.26051E-05-1.95085E-05 1.52087E-04
 -1       676-1.73515E-04-1.73755E-04 5.91167E-04-7.65417E-06-1.81837E-05 1.19536E-04
 -1       677-2.14872E-04-2.13570E-04 6.95068E-04 7.66134E-06-2.52232E-05 1.24148E-04
 -1       678-2.19931E-04-2.14569E-04 7.19296E-04 1.00968E-07-3.53327E-05 1.05443E-04
 -1       679-2.44787E-04-2.45563E-04 8.16135E-04-2.70620E-06-2.03199E-05 8.35353E-05
 -1       680-1.58904E-04-1.70164E-04 5.56349E-04 2.68431E-07-2.06880E-05 1.40236E-04
 -1       681-2.74425E-04-2.64850E-04 8.94036E-04-2.25122E-06-3.19164E-05 5.74574E-05
 -1       682-1.46213E-04-1.38207E-04 4.67240E-04-1.72281E-06-2.36903E-05 1.30407E-04
 -1       683-9.70966E-05-1.01440E-04 3.10833E-04-9.65626E-06-2.25532E-05 1.18489E-04
 -1       684-1.21133E-04-1.19124E-04 4.03594E-04 1.72559E-06-2.57814E-05 1.27375E-04
 -1       685-1.19168E-04-9.78300E-05 3.96032E-04 1.16122E-05-1.62486E-05 1.34000E-04
 -1       686-2.46956E-04-2.38807E-04 7.99925E-04-1.40278E-06-2.87026E-05 3.16399E-06
 -1       687-2.54231E-04-2.44960E-04 8.35540E-04 7.99866E-06-2.37398E-05 3.30708E-05
 -1       688-2.84737E-04-2.80071E-04 9.43405E-04-3.15411E-06-2.62139E-05 1.89572E-05
 -1       689-4.44916E-04-5.83919E-04 1.80123E-03-1.37771E-05-3.13605E-05 9.11444E-05
 -1       690-3.90410E-04-5.46831E-04 1.69912E-03-1.24254E-05-3.11792E-05 3.05135E-05
 -1       691-3.15933E-04-4.92641E-04 1.44638E-03-4.00014E-05-3.45212E-05-1.40417E-05
 -1       692-3.35827E-04-6.26619E-04 1.81934E-03-3.65590E-05-1.28584E-05-1.01328E-04
 -1       693-3.39012E-04-7.56961E-04 2.00617E-03-7.18540E-05 5.81343E-06-1.61821E-04
 -1       694-3.84503E-04-4.88325E-04 1.53875E-03-1.26968E-05-1.86716E-05 1.17621E-04
 -1       695-5.16144E-04-6.41648E-04 2.01472E-03-1.19405E-05-3.35576E-05 1.10044E-04
 -1       696-3.45399E-04-4.18686E-04 1.35103E-03 5.83001E-06-2.79735E-05 1.40329E-04
 -1       697-5.56833E-04-6.64577E-04 2.10078E-03-1.07843E-05-4.72530E-05 1.36702E-04
 -1       698-4.51170E-04-4.48391E-04 1.51245E-03-3.48273E-07-3.16353E-05 1.72720E-04
 -1       699-5.17278E-04-5.26136E-04 1.76645E-03-1.10442E-05-3.55540E-05 1.36070E-04
 -1       700-5.71533E-04-5.79233E-04 1.91782E-03 1.54206E-06-4.85915E-05 1.11373E-04
 -1       701-5.53414E-04-5.68438E-04 1.87228E-03 3.97635E-06-4.64322E-05 1.43152E-04
 -1       702-5.78056E-04-5.82917E-04 1.94717E-03 5.59698E-06-4.21546E-05 6.93854E-05
 -1       703-6.11536E-04-6.38264E-04 2.08896E-03-9.92006E-06-4.25009E-05 7.31076E-05
 -1       704-5.36666E-04-5.32119E-04 1.78236E-03-6.31588E-06-2.51062E-05 3.58623E-05
 -1       705-5.45297E-04-5.55231E-04 1.83776E-03-2.23324E-06-4.02910E-05 5.61849E-05
 -1       706-5.96833E-04-5.98697E-04 1.98021E-03 2.28084E-06-3.98548E-05 2.17588E-05
 -1       707-3.60688E-04-3.67119E-04 1.23276E-03-2.12810E-06-2.97649E-05 1.80503E-04
 -1       708-4.23142E-04-4.29438E-04 1.43513E-03 9.46991E-07-3.87306E-05 1.76415E-04
 -1       709-2.26604E-04-2.29795E-04 7.62295E-04-4.78829E-06-3.36706E-05 1.75221E-04
 -1       710-2.81654E-04-2.93421E-04 9.56651E-04 1.38890E-06-3.09507E-05 1.81921E-04
 -1       711-2.53675E-04-2.57651E-04 8.71495E-04 1.49933E-05-2.33881E-05 1.80276E-04
 -1       712-4.83562E-04-5.10758E-04 1.66971E-03 4.92544E-06-4.02652E-05 1.72474E-04
 -1       713-5.42788E-04-5.66748E-04 1.86665E-03-1.28649E-05-5.16434E-05 1.51146E-04
 -1       714-5.31939E-04-5.76512E-04 1.85896E-03-6.51595E-06-2.84851E-05 1.54600E-04
 -1       715-5.99361E-04-6.39080E-04 2.08401E-03 1.53156E-06-4.39434E-05 1.42731E-04
 -1       716-6.51652E-04-6.92439E-04 2.26656E-03 3.31764E-06-4.13650E-05 1.22626E-04
 -1       717-6.62513E-04-6.91859E-04 2.26829E-03-3.94432E-06-4.83006E-05 9.61496E-05
 -1       718-6.59141E-04-6.61614E-04 2.18809E-03-4.75669E-06-4.85414E-05 2.01495E-05
 -1       719-6.46223E-04-6.66543E-04 2.21244E-03 8.66340E-06-3.91677E-05 6.89305E-05
 -1       720-6.93636E-04-7.30256E-04 2.41255E-03-4.09800E-06-4.55950E-05 5.34199E-05
 -1       721-4.12641E-04-4.30832E-04 1.40560E-03-5.33028E-06-4.20476E-05 1.90405E-04
 -1       722-4.37524E-04-4.79231E-04 1.53931E-03-2.82152E-06-4.37180E-05 1.84988E-04
 -1       723-5.05194E-04-5.37700E-04 1.76621E-03-1.01568E-06-5.60441E-05 1.67600E-04
 -1       724-2.86337E-04-2.82507E-04 9.47974E-04-1.21831E-05-3.06652E-05 1.73762E-04
 -1       725-3.44095E-04-3.53099E-04 1.18596E-03-9.91191E-07-3.67351E-05 1.84279E-04
 -1       726-3.16464E-04-2.98134E-04 1.07187E-03 1.49008E-05-3.34460E-05 1.88872E-04
 -1       727-6.48932E-04-7.06262E-04 2.30699E-03-6.01546E-06-3.30956E-05 1.37069E-04
 -1       728-5.66210E-04-6.20712E-04 2.03129E-03-1.50083E-06-3.64122E-05 1.60939E-04
 -1       729-6.18740E-04-6.84518E-04 2.22235E-03-4.32924E-06-4.40512E-05 1.42518E-04
 -1       730-5.95910E-04-6.83005E-04 2.21030E-03-6.54655E-06-5.14004E-05 1.41907E-04
 -1       731-6.76325E-04-7.83887E-04 2.51010E-03-1.77162E-06-4.52266E-05 1.26313E-04
 -1       732-7.01949E-04-7.59840E-04 2.49719E-03-1.11483E-06-4.23598E-05 1.06627E-04
 -1       733-7.46218E-04-8.47077E-04 2.72071E-03-4.82589E-06-5.13302E-05 9.67508E-05
 -1       734-7.46464E-04-7.97598E-04 2.59774E-03-7.49510E-07-4.35942E-05 6.58412E-05
 -1       735-7.35438E-04-8.07647E-04 2.62246E-03 3.40955E-06-4.74489E-05 8.45459E-05
 -1       736-7.91690E-04-8.81404E-04 2.81617E-03 8.72391E-06-4.15402E-05 6.70531E-05
 -1       737-4.73364E-04-5.15833E-04 1.69936E-03-4.51024E-06-5.00094E-05 1.68189E-04
 -1       738-5.05429E-04-5.85759E-04 1.87034E-03-3.60472E-06-4.11224E-05 1.56433E-04
 -1       739-3.23578E-04-3.80658E-04 1.18101E-03-1.44085E-05-3.95710E-05 1.67710E-04
 -1       740-3.97821E-04-4.30344E-04 1.41485E-03-7.51904E-06-4.83865E-05 1.62259E-04
 -1       741-1.98399E-05-2.38328E-05 7.28280E-05-2.03894E-06-1.26740E-05 6.16406E-05
 -1       742-2.58224E-05-2.04970E-05 8.39797E-05 3.77011E-06-1.46918E-05 6.88394E-05
 -1       743-2.11029E-05-2.22885E-05 7.10070E-05 8.23041E-08-1.08804E-05 5.57270E-05
 -1       744-2.71096E-05-2.50194E-05 8.55709E-05 2.30891E-06-8.90464E-06 4.84123E-05
 -1       745-1.35630E-05-1.88502E-05 5.47030E-05 1.08470E-06-1.07692E-05 5.48074E-05
 -1       746-1.06419E-05-1.05374E-05 3.49327E-05-2.41809E-06-7.44562E-06 4.69621E-05
 -1       747-2.16966E-04-7.97482E-04 2.04260E-03-1.01012E-04 8.11184E-06-2.94541E-04
 -1       748-8.97221E-05-7.94033E-04 2.05400E-03-9.64694E-05 7.09779E-05-3.28237E-04
 -1       749-5.06765E-05-5.29669E-05 1.70600E-04 2.31668E-06-1.32186E-05 9.10721E-05
 -1       750-1.76320E-05-1.28536E-05 4.94425E-05-1.09177E-07-8.21090E-06 2.45683E-05
 -1       751-1.96198E-05-1.31826E-05 4.99793E-05-6.22475E-07-5.36182E-06 1.57909E-05
 -1       752-2.07107E-05-1.77375E-05 6.31580E-05-2.48072E-06-1.09904E-05 3.95131E-05
 -1       753-1.20139E-05-7.51640E-06 2.91973E-05-1.60950E-06-6.86758E-06 2.62056E-05
 -1       754-1.66238E-05-1.36807E-05 4.81695E-05 1.30514E-06-2.92103E-06 3.34745E-05
 -1       755-1.29632E-05-1.29802E-05 4.23093E-05-3.70592E-07-9.40885E-06 4.06245E-05
 -1       756-1.54970E-05-9.40027E-06 3.74473E-05 1.33238E-06-6.03605E-06 1.19869E-05
 -1       757-5.88396E-04-6.35171E-04 2.01708E-03 4.48949E-05-4.10041E-05-4.49561E-05
 -1       758-6.15498E-04-6.41765E-04 2.11912E-03 6.45033E-06-4.49823E-05-2.78501E-05
 -1       759-6.13833E-04-6.70423E-04 2.19984E-03 6.96126E-06-3.10567E-05 3.09742E-06
 -1       760-6.55331E-04-7.13235E-04 2.29449E-03 2.77936E-05-6.98239E-05-3.29079E-05
 -1       761-6.72092E-04-7.01069E-04 2.33226E-03 2.92894E-06-4.32647E-05-3.63481E-05
 -1       762-7.55647E-04-7.94904E-04 2.61504E-03 2.70481E-06-3.74522E-05-2.21226E-05
 -1       763-8.82640E-05-8.02402E-05 2.73887E-04 3.30922E-07-1.56656E-05 8.61136E-06
 -1       764-1.02078E-04-9.73826E-05 3.29972E-04 2.13688E-06-1.41740E-05-7.62735E-06
 -1       765-9.07081E-05-8.22670E-05 2.86200E-04-3.18731E-06-1.22635E-05-5.85309E-06
 -1       766-3.78166E-06-6.59686E-06 1.30488E-05-2.19486E-07-3.57817E-06 3.03740E-05
 -1       767 2.52159E-07-2.88667E-06 5.47436E-06-2.53595E-07-3.16779E-06 3.29338E-05
 -1       768-3.97359E-06-4.23568E-06 1.55064E-05-1.02039E-06-5.59863E-06 3.46161E-05
 -1       769-7.54205E-06-8.20295E-06 2.77195E-05-6.23187E-07-7.31982E-06 4.29565E-05
 -1       770-1.94331E-06-1.31678E-06 5.58198E-06-9.17946E-07-2.96127E-06 2.48617E-05
 -1       771-5.30377E-06-5.21672E-06 1.53312E-05-7.12268E-07-3.01062E-06 2.62692E-05
 -1       772-8.76471E-06-5.16261E-06 1.99279E-05 6.26639E-07-4.25034E-06 2.04348E-05
 -1       773 2.32095E-06 2.91095E-07-4.91507E-06-1.30484E-08-5.79262E-06 2.23384E-05
 -1       774 8.10037E-07 1.26231E-09-4.81934E-06-9.27256E-07-5.00949E-06 2.17169E-05
 -1       775-1.15523E-05-4.27121E-06 2.33081E-05-3.96894E-07-3.68099E-06 1.24408E-05
 -1       776-1.34805E-05-5.54045E-06 2.62063E-05-1.05339E-06-3.19675E-06 6.35809E-06
 -1       777-1.31415E-05-6.89768E-06 2.93816E-05 1.01127E-07-2.94010E-06 8.79047E-07
 -1       778-5.02063E-04-1.20251E-03 3.29191E-03 1.62538E-04 1.80366E-05 4.47723E-04
 -1       779-5.77559E-04-1.41723E-03 3.73153E-03 5.37635E-05-1.47780E-05 4.19232E-04
 -1       780-6.55670E-04-1.28184E-03 3.68832E-03 7.58603E-05-5.61940E-05 3.31159E-04
 -1       781-6.00384E-04-1.45781E-03 3.95477E-03 8.46261E-05-4.76630E-05 2.98147E-04
 -1       782-5.33729E-04-1.50579E-03 4.08451E-03 4.28813E-05-1.35640E-04 2.16941E-04
 -1       783-6.31397E-04-1.02071E-03 2.96474E-03 1.29846E-04 3.58841E-05 4.94911E-04
 -1       784-7.57922E-06-2.73710E-06 1.36491E-05-7.40673E-07-3.44214E-06-6.05776E-06
 -1       785-1.33036E-05-7.03021E-06 2.90213E-05-5.32494E-07-5.23150E-06-4.09616E-06
 -1       786-1.02321E-05-4.75229E-06 2.14925E-05 2.75886E-07-3.04279E-06-7.24386E-06
 -1       787-1.27070E-05-9.15551E-06 3.33255E-05-3.26693E-07-4.35333E-06-8.31661E-06
 -1       788-4.86710E-04-5.11153E-04 1.68122E-03 1.68719E-05-5.60041E-05-6.55990E-05
 -1       789-5.73097E-04-5.97188E-04 1.94755E-03 2.24021E-06-2.56629E-05-6.91066E-05
 -1       790-4.72504E-04-4.65105E-04 1.56785E-03 7.95096E-06-2.13682E-05-6.31523E-05
 -1       791-5.02814E-04-4.99073E-04 1.67522E-03 1.32225E-07-4.55296E-05-6.33101E-05
 -1       792-6.50422E-04-6.65518E-04 2.20689E-03 9.89451E-06-4.56025E-05-4.14645E-05
 -1       793-6.58483E-04-6.93140E-04 2.28126E-03 1.88146E-06-3.54528E-05-3.35895E-05
 -1       794-7.55258E-04-7.83702E-04 2.56347E-03-1.38242E-06-4.74008E-05-2.41050E-05
 -1       795-6.43244E-04-6.58596E-04 2.18234E-03 7.65976E-06-4.27437E-05-3.04256E-05
 -1       796-7.07074E-04-7.25310E-04 2.39792E-03-1.84915E-06-5.05363E-05-3.21717E-06
 -1       797-5.03776E-04-5.26646E-04 1.70867E-03 1.59474E-05-5.04574E-05-6.64305E-05
 -1       798-6.02361E-04-6.12805E-04 2.02620E-03-2.54564E-06-3.59829E-05-5.68784E-05
 -1       799-6.42970E-04-6.59039E-04 2.19054E-03-8.54875E-07-4.50870E-05-7.91907E-06
 -1       800-7.76319E-04-8.34548E-04 2.72608E-03 1.39690E-05-4.62690E-05 2.71678E-05
 -1       801-7.47678E-04-8.02115E-04 2.63100E-03-3.82136E-06-4.19741E-05 3.10655E-05
 -1       802-7.23650E-04-7.55048E-04 2.48516E-03 7.81040E-06-5.06633E-05 3.63539E-05
 -1       803-1.12670E-04-1.15640E-04 3.66694E-04 2.07564E-06-1.93018E-05-4.13533E-05
 -1       804-1.35706E-04-1.35784E-04 4.44241E-04 5.23898E-06-2.30857E-05-3.30674E-05
 -1       805-1.33395E-04-1.27944E-04 4.34203E-04-1.99123E-07-2.08481E-05-2.72099E-05
 -1       806-1.43611E-04-1.35160E-04 4.63296E-04 1.22500E-06-2.17443E-05-3.94675E-05
 -1       807-1.67175E-04-1.60739E-04 5.39555E-04-3.63929E-06-2.05763E-05-2.94954E-05
 -1       808-1.39753E-04-1.44909E-04 4.70662E-04 4.28355E-06-2.32795E-05-5.16148E-05
 -1       809-1.23947E-04-1.16129E-04 3.97240E-04 1.56164E-06-1.92937E-05-1.54112E-05
 -1       810-1.42653E-04-1.36963E-04 4.65550E-04-3.30672E-06-1.96715E-05-3.82107E-06
 -1       811-1.17518E-04-1.10615E-04 3.77214E-04-8.53255E-07-1.43213E-05-7.27554E-06
 -1       812-1.85328E-04-1.77036E-04 5.99097E-04 2.49308E-06-1.97117E-05-1.31662E-05
 -1       813-1.70110E-04-1.65565E-04 5.61329E-04-2.67722E-06-1.97878E-05 1.41955E-06
 -1       814-1.57276E-04-1.44774E-04 4.95232E-04 5.88720E-07-2.08267E-05 1.16432E-05
 -1       815-1.87030E-04-1.98026E-04 6.33554E-04 9.01249E-06-1.97793E-05-5.77681E-05
 -1       816-2.28716E-04-2.37017E-04 7.50684E-04 4.79812E-06-2.95217E-05-5.88476E-05
 -1       817-1.93573E-04-1.75330E-04 6.15365E-04 1.40014E-06-1.77629E-05-5.61032E-05
 -1       818-2.62768E-04-2.71488E-04 8.80022E-04 1.03609E-05-3.20777E-05-4.56272E-05
 -1       819-2.68136E-04-2.61371E-04 8.86874E-04 3.76690E-07-3.23732E-05-3.86068E-05
 -1       820-2.72543E-04-2.60934E-04 8.91036E-04 2.95287E-06-2.87618E-05-5.36706E-05
 -1       821-3.17664E-04-3.09476E-04 1.03690E-03-3.97118E-06-2.89146E-05-4.14345E-05
 -1       822-2.58502E-04-2.72840E-04 8.81137E-04 9.31083E-06-3.10942E-05-7.11783E-05
 -1       823-2.52570E-04-2.42698E-04 8.21783E-04 1.11796E-06-2.59536E-05-2.44884E-05
 -1       824-2.90591E-04-2.78018E-04 9.42232E-04-4.56069E-06-2.36317E-05-1.25428E-05
 -1       825-1.86395E-04-1.90888E-04 6.18710E-04 3.13101E-06-2.42822E-05-5.06916E-05
 -1       826-2.26058E-04-2.23893E-04 7.50940E-04-3.91859E-06-2.40852E-05-4.31617E-05
 -1       827-2.47185E-04-2.38248E-04 8.09031E-04-4.91479E-07-1.92443E-05-1.45495E-05
 -1       828-3.43258E-04-3.34965E-04 1.12754E-03 3.59679E-06-2.75977E-05-1.75572E-05
 -1       829-3.27005E-04-3.23981E-04 1.08736E-03-1.34945E-06-2.81925E-05 3.41421E-06
 -1       830-3.08433E-04-3.00559E-04 1.00890E-03 5.42290E-06-2.94730E-05 1.05987E-05
 -1       831-3.18011E-04-3.44132E-04 1.08972E-03 1.75759E-05-2.81267E-05-7.30658E-05
 -1       832-3.71958E-04-4.04172E-04 1.27257E-03-1.01776E-06-4.76212E-05-7.64490E-05
 -1       833-3.36496E-04-3.08450E-04 1.08197E-03 2.44125E-06-2.45436E-05-7.46945E-05
 -1       834-4.29165E-04-4.34029E-04 1.44470E-03 1.10755E-06-3.87595E-05-4.85677E-05
 -1       835-4.51983E-04-4.48048E-04 1.50229E-03-1.57439E-06-3.04513E-05-4.17380E-05
 -1       836-4.39605E-04-4.28361E-04 1.45749E-03 7.44927E-06-3.94224E-05-6.19550E-05
 -1       837-5.14742E-04-5.09623E-04 1.69929E-03-4.83703E-06-3.04893E-05-5.43978E-05
 -1       838-4.10298E-04-4.35874E-04 1.40817E-03 1.62877E-05-4.07695E-05-9.03957E-05
 -1       839-4.31101E-04-4.20681E-04 1.41852E-03 2.85567E-06-3.63158E-05-2.98967E-05
 -1       840-4.76163E-04-4.78744E-04 1.58854E-03-4.33434E-06-3.94699E-05-1.53665E-05
 -1       841-3.28602E-04-3.42748E-04 1.10370E-03 6.39144E-06-3.24107E-05-6.70465E-05
 -1       842-3.92712E-04-3.93344E-04 1.31584E-03-4.16401E-06-3.36674E-05-5.70216E-05
 -1       843-4.27814E-04-4.20035E-04 1.41784E-03-2.29485E-08-2.78391E-05-1.69902E-05
 -1       844-5.47739E-04-5.50524E-04 1.83482E-03 7.44811E-06-3.62746E-05-2.19806E-05
 -1       845-5.29741E-04-5.35602E-04 1.78989E-03-4.74476E-06-3.34385E-05 3.74701E-06
 -1       846-5.06621E-04-4.96887E-04 1.67129E-03 2.35414E-07-3.26046E-05 2.14737E-05
 -1       847-7.54194E-04-1.16965E-03 3.49176E-03 6.67069E-05 1.05360E-05 3.30364E-04
 -1       848-6.54982E-04-1.04229E-03 3.10967E-03 8.15580E-05 3.02493E-05 3.38820E-04
 -1       849-6.97823E-04-1.04257E-03 3.12923E-03 8.98562E-05-4.04470E-06 2.99076E-04
 -1       850-7.16757E-04-1.01631E-03 3.07868E-03 2.77069E-05-2.62972E-05 1.95118E-04
 -1       851-7.27568E-04-9.48215E-04 3.00316E-03 4.34717E-05 5.94816E-06 1.88961E-04
 -1       852-4.66712E-04-1.53427E-03 4.05855E-03 2.87621E-06-1.74902E-04 1.31761E-04
 -1       853-7.30707E-04-9.01333E-04 2.86495E-03 1.45092E-05-4.45553E-05 9.99613E-05
 -1       854-1.62153E-04-1.69705E-04 5.39114E-04 4.33218E-06-2.49374E-05-4.92286E-05
 -1       855-2.02625E-04-1.93262E-04 6.51040E-04 3.91717E-07-2.80666E-05-3.51664E-05
 -1       856-2.95157E-04-3.11834E-04 9.88913E-04 7.79747E-06-3.68429E-05-6.49039E-05
 -1       857-3.63782E-04-3.53368E-04 1.18377E-03 1.14050E-06-3.88376E-05-4.61574E-05
 -1       858-4.71855E-04-4.91717E-04 1.57904E-03 1.85986E-05-5.63822E-05-6.63458E-05
 -1       859-5.67648E-04-5.63385E-04 1.87415E-03 2.02844E-06-5.54539E-05-5.14933E-05
 -1       860-6.59332E-04-7.49416E-04 2.43454E-03-3.14510E-06-3.38704E-05 1.74991E-05
 -1       861-7.87333E-04-8.39678E-04 2.73988E-03 1.52523E-05-3.53056E-05 3.48418E-05
 -1       862-7.69799E-04-8.39513E-04 2.72477E-03 4.52865E-06-4.49276E-05-2.22584E-06
 -1       863-7.11106E-04-8.34920E-04 2.68215E-03 2.55440E-05-4.08531E-05 7.95474E-05
 -1       864-7.93640E-04-8.85888E-04 2.82774E-03 1.07310E-05-5.35018E-05 1.29479E-05
 -1       865-7.90855E-04-8.83563E-04 2.86457E-03 9.67248E-07-4.00925E-05 4.53410E-05
 -1       866-2.25151E-04-2.17611E-04 7.39431E-04 3.58146E-06-2.05240E-05-8.18485E-06
 -1       867-2.02018E-04-1.96653E-04 6.67865E-04-4.58738E-06-1.81164E-05-1.54600E-05
 -1       868-3.99273E-04-3.92948E-04 1.32658E-03 5.56267E-06-2.67771E-05-1.02967E-05
 -1       869-3.65986E-04-3.62724E-04 1.22411E-03-5.86168E-06-2.38879E-05-2.17133E-05
 -1       870-6.19124E-04-6.17395E-04 2.07890E-03 6.84972E-06-3.80190E-05-4.49956E-06
 -1       871-5.72168E-04-5.81133E-04 1.94448E-03-5.07996E-06-3.39068E-05-2.07712E-05
 -1       872 9.72196E-07-3.32137E-07-1.04570E-06 1.31860E-07-1.43678E-07 5.07622E-07
 -1       873 1.57508E-06 6.11738E-07-3.29060E-06 1.63677E-07-4.19945E-07 1.25245E-06
 -1       874 1.96869E-04 2.08225E-04-7.88973E-04 7.79610E-06 1.24174E-04 6.08449E-05
 -1       875 2.32810E-04 2.54007E-04-8.26848E-04-4.27777E-06 7.74198E-06-2.25373E-08
 -1       876 2.17251E-04 2.44227E-04-7.63685E-04 9.23969E-07-4.28430E-06 2.02672E-05
 -1       877 2.04332E-04 2.31292E-04-7.26905E-04-3.77741E-06-1.08998E-05 1.94184E-05
 -1       878 2.11451E-04 2.39368E-04-7.79343E-04-1.37056E-06-1.60555E-06 2.60942E-05
 -1       879 1.80715E-04 1.90850E-04-6.01217E-04-8.94235E-06-6.00668E-06 4.66739E-06
 -1       880 1.87093E-04 1.96937E-04-6.50901E-04 9.72863E-07-2.08462E-05 2.66366E-06
 -1       881 1.31770E-04 1.64654E-04-5.13168E-04-7.45667E-06-3.47993E-06 3.66487E-06
 -1       882 1.48145E-04 1.72227E-04-5.48382E-04-9.46802E-07 6.49494E-06 4.90578E-06
 -1       883 1.17808E-04 1.30156E-04-4.14696E-04-3.29180E-06-1.56033E-06 3.16436E-06
 -1       884 1.24238E-04 1.37294E-04-4.43735E-04 2.54142E-06-6.12360E-06-1.75674E-06
 -1       885 8.78764E-05 1.06135E-04-3.31321E-04-4.54657E-06 3.48095E-07 7.86819E-06
 -1       886 9.87303E-05 1.15065E-04-3.65454E-04-5.21754E-06 1.70550E-06 4.37792E-06
 -1       887 6.62258E-05 4.75071E-05-2.00496E-04-2.67666E-06-3.43402E-06-1.91041E-06
 -1       888 6.58288E-05 7.79726E-05-2.58316E-04-2.22304E-06 8.81386E-06 5.50695E-06
 -1       889 8.23158E-05 9.00620E-05-2.92773E-04-2.46009E-07-1.41321E-06 1.14175E-05
 -1       890 4.86875E-05 3.37610E-05-1.40908E-04-2.22149E-06-2.32641E-06-3.54903E-06
 -1       891 4.82501E-05 5.67398E-05-1.97321E-04-7.35710E-06 1.91089E-06 5.30319E-06
 -1       892 3.54155E-05 4.20459E-05-1.42869E-04-5.27525E-06 3.64508E-06 2.66365E-06
 -1       893 3.19400E-05 2.55606E-05-9.33408E-05-3.11230E-06-1.35209E-06 4.13219E-09
 -1       894 3.78945E-05 2.48319E-05-1.02674E-04-3.60080E-07-1.42822E-06-4.70830E-06
 -1       895 1.55018E-05 2.00828E-05-6.19428E-05-1.14822E-06 8.24838E-07 2.12528E-06
 -1       896 2.11784E-05 2.28825E-05-7.48693E-05 4.50464E-07 7.67025E-07 2.09588E-06
 -1       897 1.24220E-05 7.93362E-06-3.03061E-05-2.01933E-07-5.72026E-07 1.58081E-06
 -1       898 1.36336E-05 1.21939E-05-4.14410E-05 1.04023E-07-7.33911E-07-4.80257E-07
 -1       899 3.15366E-06 4.12561E-06-1.19319E-05-4.82045E-08 1.98827E-07 2.03857E-06
 -1       900 6.33942E-06 6.44780E-06-2.18300E-05-8.86042E-07 1.08950E-06 2.71134E-06
 -1       901 1.22641E-05 1.21449E-05-4.14552E-05-6.18578E-07-5.96086E-06-1.74782E-05
 -1       902 3.43727E-06 7.08520E-06-2.05558E-05-8.62296E-07-5.11427E-06-1.97410E-05
 -1       903-2.62724E-07 2.98024E-06-7.02861E-06 7.15015E-07-2.23956E-06-1.20693E-05
 -1       904 1.15966E-04 1.16108E-04-3.86263E-04 1.95455E-07-1.73742E-05-3.05919E-05
 -1       905 1.39717E-04 1.39485E-04-4.66212E-04-3.49942E-08-2.14728E-05-3.96516E-05
 -1       906 1.06628E-04 1.02051E-04-3.47874E-04-6.41758E-07-1.21214E-05-5.01699E-05
 -1       907 2.87902E-04 3.01270E-04-9.82720E-04-2.56407E-06-1.82073E-05-1.16815E-04
 -1       908 3.25050E-04 3.34460E-04-1.10504E-03 1.94968E-08-2.63714E-05-1.21828E-04
 -1       909 4.04473E-04 4.10784E-04-1.37485E-03-3.61309E-06-3.63141E-05-1.25119E-04
 -1       910 5.05082E-04 5.25780E-04-1.72762E-03-2.26202E-06-3.56635E-05-7.08698E-05
 -1       911 5.35876E-04 5.50114E-04-1.81645E-03 7.32353E-07-3.92366E-05-3.19752E-05
 -1       912 5.64971E-04 5.83993E-04-1.93130E-03 9.29252E-07-4.27161E-05-6.59496E-05
 -1       913 5.74516E-05 5.92555E-05-1.93492E-04-2.07503E-06-1.92864E-05-3.94731E-05
 -1       914 5.24281E-05 5.65143E-05-1.84785E-04 3.19422E-06-5.17949E-06-4.97542E-05
 -1       915 3.87457E-05 4.18322E-05-1.33739E-04-1.67762E-07-9.81403E-06-3.56619E-05
 -1       916 5.35823E-04 7.66990E-04-2.33453E-03-4.74144E-06-4.51996E-05-1.54623E-06
 -1       917 4.59465E-04 7.17751E-04-2.13518E-03-3.15012E-06-2.70901E-05 1.39324E-04
 -1       918 4.26159E-04 5.34194E-04-1.67471E-03-3.59301E-06-1.82514E-05 6.29245E-06
 -1       919 7.57342E-05 7.89997E-05-2.60786E-04-1.38811E-06-1.44912E-05-5.86311E-05
 -1       920 7.39282E-05 7.17815E-05-2.45870E-04-1.64025E-06-1.37471E-05-4.52503E-05
 -1       921 3.34859E-04 5.40749E-04-1.58482E-03-5.60712E-06 2.54945E-05 8.23681E-05
 -1       922 1.49693E-04 1.53938E-04-5.06663E-04 1.78605E-06-1.68069E-05-6.99756E-05
 -1       923 1.24005E-04 1.40006E-04-4.39449E-04-3.81020E-06-2.15369E-05-7.41360E-05
 -1       924 1.17492E-04 1.19876E-04-3.97317E-04-5.75335E-07-1.75566E-05-6.26976E-05
 -1       925 4.26897E-04 4.49709E-04-1.46891E-03 3.08516E-07-3.18446E-05-9.59781E-05
 -1       926 4.65965E-04 4.71503E-04-1.56906E-03 2.70073E-06-4.30192E-05-6.36655E-05
 -1       927 2.15485E-04 2.19271E-04-7.24465E-04-2.73984E-06-2.38353E-05-7.43598E-05
 -1       928 1.77658E-04 1.80250E-04-6.02186E-04-6.41420E-08-1.58532E-05-9.33053E-05
 -1       929 1.72078E-04 1.69632E-04-5.76748E-04 2.60524E-07-2.19920E-05-7.24290E-05
 -1       930 4.93043E-04 5.11977E-04-1.68897E-03-1.54142E-06-3.95168E-05-1.02530E-04
 -1       931 2.95330E-04 2.99580E-04-9.89984E-04 4.12221E-06-2.38884E-05-9.22806E-05
 -1       932 2.40516E-04 2.48378E-04-8.18603E-04 6.50070E-07-2.58692E-05-9.90799E-05
 -1       933 2.40532E-04 2.50870E-04-8.18237E-04-3.11616E-06-2.45035E-05-8.28106E-05
 -1       934 4.20766E-04 4.60971E-04-1.48655E-03 5.03654E-06-7.65935E-06-1.12099E-04
 -1       935 3.20467E-04 3.08719E-04-1.06917E-03-1.17642E-05-2.24526E-05-1.00316E-04
 -1       936 4.35565E-04 4.66982E-04-1.52016E-03 2.41416E-06-3.52366E-05-1.23088E-04
 -1       937 3.69957E-04 3.77144E-04-1.24974E-03-5.88057E-06-3.36081E-05-9.50662E-05
 -1       938 3.15007E-04 3.10697E-04-1.05369E-03 1.65552E-06-2.93565E-05-9.51864E-05
 -1       939 3.07398E-04 3.37134E-04-1.08272E-03-3.06324E-06 1.17866E-06-7.80830E-05
 -1       940 5.65216E-04 6.09282E-04-1.97991E-03 1.82909E-06-4.66458E-05-1.07411E-04
 -1       941 8.92870E-06 8.33932E-06-2.65186E-05 1.72110E-07-2.89972E-06 4.62217E-06
 -1       942 2.96109E-06 1.94180E-06-6.88972E-06-4.65024E-08-1.15631E-06 1.47147E-06
 -1       943 6.06924E-04 7.08880E-04-2.25796E-03-2.67128E-07-5.07382E-05-1.03455E-04
 -1       944 5.19619E-04 5.90728E-04-1.90936E-03-4.60990E-06-4.00571E-05-1.03138E-04
 -1       945 5.37210E-04 5.90414E-04-1.91923E-03-4.29635E-06-4.92113E-05-1.15233E-04
 -1       946 2.31878E-04 2.38564E-04-7.90885E-04-1.59642E-06-2.67816E-05-1.09200E-04
 -1       947 6.59029E-04 9.21624E-04-2.81066E-03 2.47771E-06-6.78069E-05-9.26702E-05
 -1       948 5.94501E-04 7.53961E-04-2.36141E-03-1.66641E-06-4.17215E-05-7.42410E-05
 -1       949 1.77509E-04 1.89673E-04-6.25551E-04 6.09678E-09-8.94649E-06-8.09276E-05
 -1       950 4.15184E-04 4.20194E-04-1.39293E-03-7.40438E-07-3.66173E-05-5.96398E-05
 -1       951 4.32559E-04 4.37617E-04-1.45259E-03 1.62314E-06-3.25102E-05-1.47998E-05
 -1       952 2.37541E-04 2.39134E-04-8.04920E-04-9.98414E-07-2.35103E-05-1.03816E-04
 -1       953 1.69205E-04 1.69734E-04-5.65801E-04-1.21166E-06-2.42954E-05-9.17355E-05
 -1       954 1.62058E-04 1.57709E-04-5.37642E-04 1.40003E-06-2.25820E-06-6.81473E-05
 -1       955 1.76440E-04 1.87209E-04-6.06900E-04-4.84626E-06-1.95672E-05-9.15785E-05
 -1       956 1.22774E-04 1.23633E-04-4.12740E-04-3.12303E-06-1.99962E-05-8.00211E-05
 -1       957 1.23769E-04 1.27478E-04-4.09758E-04 1.37982E-06-5.69630E-06-6.77690E-05
 -1       958 7.51878E-04 8.02624E-04-2.63592E-03-2.92851E-06-3.80624E-05-5.71661E-05
 -1       959 7.72610E-04 7.78305E-04-2.64822E-03-6.27974E-06-5.08152E-05 1.59146E-05
 -1       960 7.99849E-04 8.61934E-04-2.78552E-03 1.70019E-05-3.90305E-05-5.32285E-05
 -1       961 6.92792E-05 7.20017E-05-2.33228E-04-7.51352E-07-1.23866E-05-2.60403E-05
 -1       962 8.13302E-05 7.81878E-05-2.64299E-04-1.63233E-07-1.61524E-05-1.09205E-05
 -1       963 9.43352E-05 9.25966E-05-3.09978E-04 3.39708E-07-1.51556E-05-3.00531E-05
 -1       964 1.26501E-04 1.30152E-04-4.33919E-04-7.08530E-07-1.58712E-05-7.98875E-05
 -1       965 8.24654E-05 8.46162E-05-2.81703E-04-2.57461E-06-1.34899E-05-6.54079E-05
 -1       966 9.07720E-05 8.81331E-05-2.89998E-04 1.63696E-06-7.25952E-06-5.65794E-05
 -1       967 8.25357E-05 9.68867E-05-2.98754E-04-4.22322E-06-1.65301E-05-6.65663E-05
 -1       968 4.80803E-05 5.26116E-05-1.70672E-04-1.56969E-06-1.09910E-05-5.31252E-05
 -1       969 5.50882E-05 5.88369E-05-1.85605E-04 2.14949E-08-7.92881E-06-4.90173E-05
 -1       970 7.36063E-04 7.55713E-04-2.47938E-03 7.17280E-06-2.83463E-05-1.18454E-05
 -1       971 3.83534E-05 4.48447E-05-1.41902E-04-1.99618E-06-1.01793E-05-4.93299E-05
 -1       972 3.12535E-05 3.09137E-05-1.04651E-04-2.78185E-06-4.95947E-06-3.67839E-05
 -1       973 2.25825E-05 2.79206E-05-8.47606E-05-2.15070E-06-3.53626E-06-3.64072E-05
 -1       974 5.65326E-06 1.08984E-05-3.06487E-05-1.55660E-06-4.32687E-06-2.63251E-05
 -1       975-2.60409E-06 3.20911E-06-2.46215E-06-6.64884E-07-2.36960E-06-1.39274E-05
 -1       976 1.22733E-04 1.26014E-04-4.14695E-04 7.60031E-07-1.66094E-05-1.01485E-05
 -1       977 3.98459E-06 1.18916E-06-8.25919E-06-8.62338E-07-3.19080E-06-1.65272E-05
 -1       978 7.28040E-04 1.16328E-03-3.44594E-03 1.43176E-05-8.96736E-05-2.98474E-04
 -1       979 4.77921E-04 1.34382E-03-3.63107E-03 5.42975E-05-1.28708E-04-3.28920E-04
 -1       980 5.03916E-04 1.20787E-03-3.33530E-03 1.04103E-06-1.13333E-04-1.29119E-04
 -1       981 7.13501E-04 1.34634E-03-3.76456E-03 1.02474E-04 4.53958E-05-6.35598E-04
 -1       982 3.25348E-04 1.54528E-03-3.80986E-03 1.21816E-04-1.92935E-04-3.90618E-04
 -1       983 1.74232E-04 1.78636E-04-5.84103E-04 1.04403E-06-2.22351E-05-4.44872E-05
 -1       984 1.86008E-04 1.85809E-04-6.17398E-04 4.99043E-07-2.27722E-05-1.51419E-05
 -1       985 2.09002E-04 2.03753E-04-6.88711E-04-2.19848E-06-2.50415E-05-4.32886E-05
 -1       986 5.95368E-04 6.04258E-04-2.01022E-03 1.94968E-06-3.46237E-05-2.25052E-05
 -1       987 5.57504E-04 5.63825E-04-1.86644E-03 4.65723E-06-2.33888E-05 2.27639E-05
 -1       988 6.09783E-04 5.95987E-04-2.02302E-03-1.84325E-06-3.31764E-05 4.62649E-05
 -1       989 6.94866E-04 1.05168E-03-3.16058E-03 3.92091E-06-7.95557E-05-1.62312E-04
 -1       990 7.81580E-04 9.51222E-04-2.99512E-03 5.31098E-06-5.66020E-05-1.38705E-04
 -1       991 2.35943E-04 2.42648E-04-7.98887E-04-9.28397E-07-2.52038E-05-5.13899E-05
 -1       992 2.57732E-04 2.54949E-04-8.53267E-04 2.30494E-07-2.58290E-05-1.94689E-05
 -1       993 2.81368E-04 2.83800E-04-9.42950E-04 3.25031E-07-2.88988E-05-5.24300E-05
 -1       994 3.22993E-04 3.31561E-04-1.08578E-03 1.57089E-06-2.93610E-05-6.00963E-05
 -1       995 3.39714E-04 3.42080E-04-1.13484E-03 3.36719E-07-3.13286E-05-2.10292E-05
 -1       996 3.66744E-04 3.60560E-04-1.21633E-03-3.39249E-06-3.29844E-05-5.70415E-05
 -1       997 4.41341E-04 8.98751E-04-2.51746E-03-1.01667E-05-4.79568E-05 1.31594E-04
 -1       998 5.56622E-04 1.01408E-03-2.91864E-03-2.35051E-06-6.64413E-05-3.65491E-05
 -1       999 2.85367E-04 1.00634E-03-2.65290E-03-2.04095E-05-4.19119E-05 2.64267E-04
 -1      1000 1.42361E-04 8.44387E-04-2.04476E-03-8.61376E-05-5.20767E-05 3.70294E-04
 -1      1001 3.39730E-04 7.41774E-04-2.04239E-03-2.73151E-06-1.19130E-06 2.73556E-04
 -1      1002-4.07368E-06 3.33035E-06-1.77154E-06-6.11872E-07-1.70389E-06-1.41406E-05
 -1      1003-5.14004E-06-9.53885E-07 6.47398E-06 9.52580E-08-9.92821E-07-9.03396E-06
 -1      1004 1.63799E-05 1.95778E-05-6.27140E-05-1.02136E-06-6.67006E-06-3.01869E-05
 -1      1005 1.98419E-04 1.69708E-03-4.02066E-03 5.75622E-05-1.34647E-04-1.24759E-04
 -1      1006 1.45202E-04 1.46308E-03-3.21641E-03-6.51701E-05-1.06451E-05 1.85702E-04
 -1      1007 2.47445E-04 1.48943E-03-3.62144E-03-3.76013E-05-1.11842E-04-1.01970E-05
 -1      1008 2.30875E-05 3.07221E-05-9.19865E-05-2.17603E-06-7.93141E-06-3.99915E-05
 -1      1009 3.45779E-04 3.49143E-04-1.16687E-03-1.71307E-06-3.39261E-05-1.16606E-04
 -1      1010 2.40485E-04 2.72952E-04-8.48547E-04-5.53608E-06-1.77936E-05-9.86689E-05
 -1      1011 3.66246E-04 4.14858E-04-1.33683E-03-5.01216E-07-2.20984E-05-6.01127E-05
 -1      1012 4.88883E-04 5.99670E-04-1.88836E-03 2.55238E-06-3.30378E-05-5.00509E-05
 -1      1013 6.30750E-04 6.51168E-04-2.15775E-03 5.75233E-07-3.39664E-05-6.57865E-05
 -1      1014 6.50345E-04 6.60295E-04-2.20071E-03-1.84156E-06-3.86331E-05-1.91065E-05
 -1      1015 6.85102E-04 7.32595E-04-2.39237E-03 2.28745E-06-4.68723E-05-5.66450E-05
 -1      1016 2.85570E-05 2.46044E-05-8.96304E-05-4.94394E-07-9.73557E-06-2.54765E-05
 -1      1017 3.44800E-04 1.19638E-03-3.12363E-03-8.19544E-06-8.67660E-05 1.18989E-04
 -1      1018 2.72845E-06 1.50727E-06-6.35109E-06 4.03145E-07-1.75332E-06-2.69238E-06
 -1      1019 1.19796E-06-3.42083E-07-8.11130E-07 1.92699E-07-3.33164E-07 1.34893E-06
 -1      1020 8.22525E-04 1.02452E-03-3.21661E-03 1.52441E-05-5.47958E-05-2.11739E-04
 -1      1021 9.87184E-06 1.00668E-05-3.53806E-05-1.09204E-07-2.44758E-06-2.30821E-05
 -1      1022 3.73925E-05 3.41692E-05-1.17698E-04-8.48255E-07-9.85834E-06-9.75407E-06
 -1      1023 1.91947E-05 1.98865E-05-6.29810E-05-3.04613E-08-6.74748E-06-1.21804E-05
 -1      1024 2.61666E-05 2.60301E-05-8.56921E-05 9.36358E-07-7.21675E-06-3.24989E-06
 -1      1025 7.98555E-04 7.93348E-04-2.75668E-03 1.87387E-05 1.42597E-05-8.96323E-05
 -1      1026 9.15133E-06 7.06693E-06-2.56229E-05-4.09084E-07-4.58068E-06-9.75621E-06
 -1      1027 8.83748E-06 6.76845E-06-2.41219E-05 2.35162E-07-4.04104E-06-1.26993E-06
 -1      1028 1.64946E-05 1.47888E-05-5.05256E-05-5.88578E-08-5.87246E-06-3.53916E-06
 -1      1029 1.71861E-05 1.35156E-05-4.93092E-05-4.12316E-07-2.96257E-06 5.35221E-06
 -1      1030 2.46873E-05 2.25420E-05-7.73222E-05 1.50376E-06-5.59717E-06 4.65130E-06
 -1      1031 8.56340E-05 8.48617E-05-2.86600E-04 5.49836E-07-4.33543E-06 1.37141E-05
 -1      1032 1.09932E-04 1.04075E-04-3.52373E-04-1.33647E-06-1.25268E-05 1.30708E-05
 -1      1033 8.24011E-05 7.71902E-05-2.63856E-04 3.84696E-07-9.29247E-06 1.09434E-05
 -1      1034 1.70031E-04 1.64184E-04-5.56335E-04 8.36429E-07-1.36616E-05 2.03566E-05
 -1      1035 1.36764E-04 1.32685E-04-4.45835E-04-5.44023E-07-1.38136E-05 1.57553E-05
 -1      1036 2.30258E-04 2.32815E-04-7.72401E-04-6.43682E-07-1.91024E-05 2.25691E-05
 -1      1037 1.98059E-04 1.93937E-04-6.51811E-04 1.14582E-06-1.57701E-05 2.03176E-05
 -1      1038 6.09390E-05 5.86762E-05-1.97416E-04-1.84211E-07-1.28011E-05-5.34216E-06
 -1      1039 4.78889E-05 4.31379E-05-1.49877E-04 4.72606E-07-7.43189E-06 3.82925E-06
 -1      1040 3.19791E-04 3.13445E-04-1.05662E-03 1.19634E-06-1.88404E-05 2.71132E-05
 -1      1041 2.73470E-04 2.67454E-04-8.97960E-04-4.60469E-07-1.83765E-05 2.19321E-05
 -1      1042 3.95376E-04 4.06098E-04-1.34020E-03 1.94437E-07-2.35264E-05 3.09861E-05
 -1      1043 3.55880E-04 3.53233E-04-1.18157E-03 2.12748E-06-2.02223E-05 2.58168E-05
 -1      1044 6.23675E-05 5.78921E-05-1.96588E-04 1.63668E-06-1.03335E-05 1.20667E-05
 -1      1045 5.02677E-04 4.90061E-04-1.66673E-03-1.44980E-06-3.31583E-05 2.67646E-05
 -1      1046 4.54599E-04 4.56032E-04-1.50250E-03 3.07125E-06-1.26916E-05 4.49925E-05
 -1      1047 4.93680E-04 4.93182E-04-1.65061E-03-7.89641E-07-3.41219E-05-1.66185E-05
 -1      1048 1.01731E-04 1.00908E-04-3.37154E-04-4.23612E-07-1.63961E-05-8.27603E-06
 -1      1049 1.55189E-04 1.52100E-04-5.11903E-04-6.55538E-07-1.76880E-05-1.04661E-05
 -1      1050 2.19543E-04 2.16858E-04-7.27183E-04-7.70693E-07-2.31444E-05-1.56302E-05
 -1      1051 2.98620E-04 2.95176E-04-9.90959E-04-2.01556E-06-2.52534E-05-1.56126E-05
 -1      1052 3.84787E-04 3.83613E-04-1.28286E-03-1.09338E-06-2.95353E-05-2.05692E-05
 -1      1053-6.77995E-08 1.06030E-06-4.20897E-06-1.10664E-07-1.97895E-06-6.76547E-06
 -1      1054 4.93128E-05 4.78367E-05-1.55896E-04 4.17252E-07-6.14350E-06 1.31575E-05
 -1      1055 7.31382E-04 8.54110E-04-2.72737E-03 8.67724E-06-5.79836E-05-9.65698E-05
 -1      1056 6.94087E-04 7.93682E-04-2.53219E-03-3.90861E-06-5.88612E-05-8.89912E-05
 -1      1057 6.35027E-04 6.90353E-04-2.25049E-03 3.46686E-07-5.00929E-05-8.87987E-05
 -1      1058 3.57454E-05 3.48716E-05-1.16039E-04-3.32829E-08-6.68095E-06 1.01557E-05
 -1      1059 8.61783E-04 9.10043E-04-2.96901E-03 3.04328E-05-2.67865E-05-7.80551E-05
 -1      1060 8.77364E-04 9.74937E-04-3.15959E-03 9.39003E-06 1.45865E-05-1.66959E-04
 -1      1061 8.26153E-04 1.19320E-03-3.61760E-03 3.91925E-05-5.15448E-05-5.03247E-04
 -1      1062 9.41069E-04 1.05822E-03-3.43602E-03 2.26994E-05-7.68212E-06-2.55142E-04
 -1      1063 9.31097E-04 1.22613E-03-3.71796E-03 2.89466E-05-2.66910E-05-1.76920E-04
 -1      1064 6.39143E-04 6.28708E-04-2.13336E-03-1.15081E-05-2.99616E-05 1.37341E-05
 -1      1065 6.72257E-04 8.37103E-04-2.61245E-03 1.22271E-06-5.43199E-05-1.04106E-04
 -1      1066 4.94075E-05 4.64829E-05-1.59815E-04 9.88792E-08-1.12616E-05-2.20926E-05
 -1      1067 3.71620E-04 3.08753E-04-1.97348E-03 2.14449E-04 3.76024E-04-5.09299E-04
 -1      1068 9.95547E-07-1.30758E-07-9.59187E-07-1.46460E-07-1.38015E-06 2.57773E-07
 -1      1069 3.74768E-07-2.13049E-07-2.92340E-08 2.62902E-08-3.48324E-07 7.42213E-07
 -1      1070 8.66306E-07-2.34942E-07-5.81586E-07 3.99748E-07 1.03810E-07 1.37660E-06
 -1      1071-2.94220E-06-1.13328E-06 4.78027E-06-1.94309E-07-3.10293E-07-5.60032E-06
 -1      1072-1.75423E-06 6.74285E-07 3.17549E-06-4.33338E-07-4.79356E-07-5.47338E-06
 -1      1073-7.30788E-06 1.29082E-06 3.41278E-06 1.57231E-07-5.09798E-07-6.65425E-06
 -1      1074 1.35657E-04 4.85884E-04-1.21570E-03-6.22586E-06 1.41143E-04 2.79795E-04
 -1      1075 2.11986E-04 5.37217E-04-1.47113E-03-2.97956E-05 9.87750E-06 2.40088E-04
 -1      1076 4.62269E-05 6.24316E-04-1.63098E-03-6.79398E-05-1.89490E-05 2.30565E-04
 -1      1077 6.46434E-04 1.05412E-03-3.33114E-03 1.05721E-04 2.03282E-04-4.11383E-04
 -1      1078 5.49350E-04 8.87671E-04-2.84205E-03 3.71316E-05 2.09543E-04-4.51335E-04
 -1      1079 3.95014E-04 1.09435E-03-3.05451E-03 7.50731E-05 8.53703E-05-5.58074E-04
 -1      1080 7.34545E-04 6.79543E-04-2.59968E-03 1.55887E-05 9.79509E-05-5.20907E-05
 -1      1081 6.22659E-04 7.39057E-04-2.61022E-03 4.27584E-05 1.47186E-04-1.25724E-04
 -1      1082 8.49525E-04 1.26057E-03-3.57944E-03 5.21686E-05 2.32457E-05-5.49160E-04
 -1      1083 7.46947E-04 7.67344E-04-2.69694E-03 7.03783E-05 5.14336E-05-2.88887E-04
 -1      1084 7.92869E-04 1.28454E-03-3.66922E-03 2.02070E-05-1.41361E-04-4.26070E-04
 -1      1085 6.60919E-04 7.50492E-04-2.66659E-03 4.37643E-05 6.96661E-05-1.16867E-04
 -1      1086 6.93415E-04 5.82721E-04-2.30242E-03 2.50525E-05 2.83955E-05-1.55354E-04
 -1      1087 9.99412E-04 1.12186E-03-3.37264E-03-1.21003E-05-2.98957E-05-1.70042E-04
 -1      1088 6.30560E-04 5.54021E-04-2.09234E-03 1.10917E-05-3.72123E-05-1.15947E-04
 -1      1089 6.19263E-04 6.95282E-04-2.42023E-03 7.74013E-06-1.56465E-05-1.07125E-04
 -1      1090 9.32438E-04 9.75604E-04-3.03600E-03 3.18047E-05 1.77262E-05-1.22222E-04
 -1      1091 5.80692E-04 5.13723E-04-1.85428E-03 7.32336E-06-9.81223E-06-6.55655E-05
 -1      1092 5.80840E-04 4.94491E-04-1.89307E-03 8.09643E-06-4.63742E-05-7.49045E-05
 -1      1093 6.66187E-04 6.75716E-04-2.32024E-03 2.84102E-05-6.51907E-05-7.90298E-05
 -1      1094 8.48687E-04 8.71616E-04-2.84174E-03 2.77655E-05-1.87298E-05-4.36149E-05
 -1      1095 8.57015E-04 9.67421E-04-2.97808E-03 2.05498E-05-1.95074E-06-1.00966E-04
 -1      1096 5.55703E-04 5.14390E-04-1.89968E-03 2.40219E-05-4.11992E-06 5.47440E-05
 -1      1097 5.65099E-04 6.92432E-04-2.25356E-03 8.55371E-06-6.70714E-05-8.60063E-06
 -1      1098 6.30421E-04 7.04683E-04-2.27736E-03 1.00606E-05 3.32955E-05-1.67671E-05
 -1      1099 7.84687E-04 8.34692E-04-2.63092E-03 1.08773E-05-5.42455E-05-2.84592E-05
 -1      1100 7.94969E-04 8.37621E-04-2.72401E-03 3.37193E-05 2.87456E-05-4.05905E-05
 -1      1101 5.07472E-04 4.16895E-04-1.69714E-03-1.63621E-05-6.92171E-06 4.59657E-05
 -1      1102 5.38497E-04 5.82083E-04-2.03679E-03 5.73676E-05-1.19185E-04 4.46408E-05
 -1      1103 7.82187E-04 7.49509E-04-2.37248E-03 2.82329E-05-2.98056E-05-1.16629E-05
 -1      1104 4.76600E-04 4.23780E-04-1.54708E-03 2.36587E-05 3.08943E-05 4.38639E-05
 -1      1105 4.42326E-04 5.04363E-04-1.79309E-03 2.83281E-05 2.35984E-05 5.61923E-05
 -1      1106 6.86578E-04 6.84174E-04-2.19549E-03-1.08753E-05-4.07413E-05-3.63957E-05
 -1      1107 4.21710E-04 3.64468E-04-1.42361E-03 1.49629E-05-2.77841E-06 3.99001E-05
 -1      1108 4.34800E-04 4.94097E-04-1.66808E-03 2.78542E-05-5.81493E-05 5.63703E-05
 -1      1109 6.43143E-04 6.12027E-04-1.95423E-03 1.56475E-05-3.37621E-05 1.70623E-05
 -1      1110 3.97876E-04 3.52802E-04-1.35850E-03 1.64643E-05-1.44265E-05 4.95709E-05
 -1      1111 4.11715E-04 4.43424E-04-1.58355E-03 4.26293E-05-6.58910E-05 3.73666E-05
 -1      1112 6.13533E-04 5.77259E-04-1.83024E-03 1.64852E-05-2.98554E-05 1.74871E-05
 -1      1113 3.42896E-04 2.91503E-04-1.16461E-03 1.13124E-05-1.24443E-05 4.85930E-05
 -1      1114 3.46229E-04 4.15307E-04-1.41057E-03 1.95304E-05-6.87284E-05 5.35657E-05
 -1      1115 5.26108E-04 5.16101E-04-1.66071E-03 5.93947E-06-3.69839E-05 3.45075E-06
 -1      1116 3.25477E-04 2.68350E-04-1.05871E-03 1.25665E-05-2.05659E-05 1.97620E-05
 -1      1117 3.36981E-04 3.15816E-04-1.22510E-03 2.21473E-05-4.68222E-05 4.55148E-05
 -1      1118 5.10154E-04 4.62144E-04-1.48477E-03 5.81751E-06-2.88014E-05 2.23539E-05
 -1      1119 2.79920E-04 2.58052E-04-9.76871E-04 8.25223E-06-4.23876E-06 4.13210E-05
 -1      1120 2.84287E-04 3.53586E-04-1.18389E-03 1.93782E-05-5.70731E-05 1.74167E-05
 -1      1121 4.32016E-04 4.22684E-04-1.33780E-03-2.74767E-06-2.35063E-05 2.64193E-05
 -1      1122 2.49676E-04 2.15927E-04-8.48424E-04 1.23495E-05-1.60266E-05 3.17389E-05
 -1      1123 2.64688E-04 2.82974E-04-1.01019E-03 2.20671E-05-4.19664E-05 4.09079E-05
 -1      1124 3.82949E-04 3.73941E-04-1.19560E-03 6.05299E-06-3.06845E-05 2.03344E-05
 -1      1125 2.17040E-04 1.94385E-04-7.52289E-04 7.33226E-06-5.11625E-06 3.72021E-05
 -1      1126 2.24629E-04 2.68985E-04-9.16413E-04 1.76160E-05-4.09076E-05 3.24357E-05
 -1      1127 3.42348E-04 3.28457E-04-1.05262E-03 9.94394E-07-2.82982E-05 1.98424E-05
 -1      1128 1.93271E-04 1.60465E-04-6.40072E-04 9.00149E-06-1.97806E-05 2.09182E-05
 -1      1129 2.05995E-04 2.01939E-04-7.55371E-04 1.51122E-05-3.40678E-05 3.58067E-05
 -1      1130 3.12644E-04 2.85645E-04-9.16842E-04 9.58222E-06-2.36568E-05 1.77755E-05
 -1      1131 1.61380E-04 1.47181E-04-5.60889E-04 3.38335E-06-8.88117E-06 3.00234E-05
 -1      1132 1.66873E-04 2.05376E-04-6.91316E-04 1.21848E-05-4.08446E-05 2.04208E-05
 -1      1133 2.59377E-04 2.47189E-04-7.94343E-04-1.75201E-06-2.34733E-05 1.77533E-05
 -1      1134 1.36935E-04 1.18234E-04-4.65190E-04 6.24322E-06-1.41745E-05 2.38662E-05
 -1      1135 1.48739E-04 1.57381E-04-5.63376E-04 1.32564E-05-2.93604E-05 3.09435E-05
 -1      1136 2.18457E-04 2.09829E-04-6.75890E-04 3.40779E-06-2.29635E-05 1.70953E-05
 -1      1137 1.13290E-04 1.01752E-04-3.93689E-04 3.09238E-06-8.10539E-06 2.50014E-05
 -1      1138 1.20958E-04 1.42804E-04-4.88098E-04 1.02102E-05-2.72528E-05 2.42861E-05
 -1      1139 1.86064E-04 1.76256E-04-5.69296E-04 4.83337E-07-1.99553E-05 1.63163E-05
 -1      1140 9.51420E-05 7.98209E-05-3.15328E-04 3.91463E-06-1.56432E-05 1.66090E-05
 -1      1141 1.04993E-04 1.01024E-04-3.80037E-04 8.20114E-06-2.23550E-05 2.47536E-05
 -1      1142 1.61888E-04 1.45794E-04-4.70923E-04 4.72627E-06-1.63181E-05 1.49379E-05
 -1      1143 7.40140E-05 7.32650E-05-2.81206E-04 7.11820E-06-1.95226E-05 1.79533E-05
 -1      1144 8.16528E-05 9.15903E-05-3.18873E-04 7.60538E-06-2.94104E-05 1.18084E-05
 -1      1145 1.25609E-04 1.16078E-04-3.83522E-04-3.21354E-07-1.60993E-05 1.34467E-05
 -1      1146 6.17765E-05 6.20544E-05-2.04725E-04-3.18696E-06-6.00165E-06 8.93953E-06
 -1      1147 5.68256E-05 4.70392E-05-1.84156E-04-1.88114E-07-1.94459E-05 1.43903E-05
 -1      1148 1.00822E-04 9.31649E-05-3.07935E-04-4.47707E-06-4.90480E-06 1.82485E-05
 -1      1149 3.82549E-05 3.82288E-05-1.43515E-04 1.45461E-06-1.53683E-05 1.49722E-05
 -1      1150 5.23406E-05 5.64873E-05-1.80930E-04 5.69228E-06-2.00098E-05 1.21059E-05
 -1      1151 6.32033E-05 6.00558E-05-2.11245E-04-5.08602E-07-8.56372E-06 1.36771E-05
 -1      1152 7.96412E-05 7.86090E-05-2.71363E-04 6.03032E-06 6.80959E-07 1.99341E-05
 -1      1153 7.25515E-05 6.66747E-05-2.26181E-04 1.15539E-06-8.91935E-06 9.95725E-06
 -1      1154 3.03743E-05 2.78707E-05-1.06784E-04-5.47128E-07-9.04388E-06 6.51896E-06
 -1      1155 3.53008E-05 2.44910E-05-1.03408E-04-4.89270E-07-1.25154E-05 8.66532E-06
 -1      1156 5.47425E-05 5.17479E-05-1.61750E-04-1.10938E-06-7.08436E-06 1.40531E-05
 -1      1157 2.37357E-05 2.40993E-05-8.42891E-05 3.70403E-07-6.08173E-06 9.14836E-06
 -1      1158 2.79050E-05 2.12527E-05-8.44658E-05 7.59969E-07-1.07140E-05 5.20796E-06
 -1      1159 4.17922E-05 3.99179E-05-1.25101E-04 7.84820E-07-7.45352E-06 1.64166E-05
 -1      1160 1.11651E-05 9.09348E-06-3.64067E-05 1.86240E-07-5.85764E-06 5.56850E-06
 -1      1161 1.40034E-05 1.45480E-05-5.15621E-05 1.62782E-06-8.39505E-06 7.05512E-06
 -1      1162 2.14774E-05 1.82107E-05-6.07103E-05 1.46483E-06-4.00303E-06 4.89860E-06
 -1      1163 1.87066E-05 1.69797E-05-5.85137E-05 1.64145E-06-8.34806E-06 4.99990E-06
 -1      1164 2.91744E-05 2.84098E-05-9.11783E-05 1.50909E-06-6.76005E-06 6.84235E-06
 -1      1165 6.04010E-06 4.80428E-06-1.77686E-05-2.65790E-07-4.55549E-06 2.01532E-06
 -1      1166 7.03947E-06 6.83994E-06-2.50302E-05 1.21603E-06-5.79752E-06 5.57578E-06
 -1      1167 1.23589E-05 1.04740E-05-3.38823E-05-5.53583E-07-1.75727E-06 3.81819E-06
 -1      1168 1.58104E-06 1.39550E-06-5.07406E-06-1.47982E-07-1.85773E-06 1.07129E-06
 -1      1169 3.05394E-06 2.12875E-06-9.33741E-06 7.34198E-07-3.53902E-06 2.09243E-06
 -1      1170 6.50005E-06 4.08187E-06-1.39425E-05 4.55508E-08-2.21615E-06 2.66057E-06
 -1      1171 1.95226E-06 6.12031E-07-2.70550E-06-1.14144E-07-6.78949E-07 1.24108E-06
 -1      1172 2.61214E-04 5.52954E-04-1.56815E-03-2.20543E-05 4.22873E-05 2.08323E-04
 -1      1173 2.73100E-04 5.40983E-04-1.52568E-03-1.48362E-05-7.14437E-06 1.67453E-04
 -1      1174 2.37362E-04 7.84761E-04-2.08657E-03-2.42568E-05 4.17169E-05 4.02531E-04
 -1      1175 2.66960E-04 4.19107E-04-1.25741E-03-1.92644E-05 4.86911E-05 6.91072E-05
 -1      1176 2.71970E-04 3.86658E-04-1.17015E-03-3.42691E-06-2.62095E-05 3.27899E-05
 -1      1177 3.53217E-04 6.29088E-04-1.78575E-03-1.91244E-05-1.81856E-05 1.67279E-04
 -1      1178 2.88314E-04 3.26314E-04-1.05435E-03-7.84195E-06 3.08094E-05-3.37550E-05
 -1      1179 2.64307E-04 3.03123E-04-9.68788E-04-8.01542E-07-1.53309E-05-4.51221E-05
 -1      1180 3.20846E-04 3.68012E-04-1.20478E-03 1.69169E-06-1.85254E-06-1.79485E-05
 -1      1181 4.06925E-04 5.34142E-04-1.63031E-03-2.20396E-07 3.14630E-05 1.44464E-05
 -1      1182 4.06553E-04 4.66569E-04-1.46526E-03-1.50347E-05-4.07893E-05-3.55884E-05
 -1      1183 2.35634E-04 2.59899E-04-8.36261E-04-1.87290E-06 2.68456E-05-4.81578E-05
 -1      1184 2.22835E-04 2.45674E-04-7.96199E-04 2.63328E-06-1.43061E-05-4.88571E-05
 -1      1185 3.37745E-04 3.58361E-04-1.14139E-03-1.09672E-05-2.42883E-05-8.72739E-05
 -1      1186 1.89257E-04 2.11034E-04-6.75760E-04-1.14167E-05 1.40867E-05-5.61846E-05
 -1      1187 1.74101E-04 1.90495E-04-6.20459E-04 9.69275E-07-8.70594E-06-5.42976E-05
 -1      1188 2.27434E-04 2.31241E-04-7.68838E-04 4.24757E-06-6.36296E-06-6.68311E-05
 -1      1189 3.09266E-04 3.29925E-04-1.08562E-03-1.05463E-05-6.47362E-06-9.49684E-05
 -1      1190 2.81969E-04 2.92395E-04-9.54554E-04-6.42140E-06-4.38023E-06-9.78082E-05
 -1      1191 1.37857E-04 1.56494E-04-5.00674E-04-5.77648E-06 9.25083E-06-4.59640E-05
 -1      1192 1.32063E-04 1.42652E-04-4.70265E-04 1.09078E-07-8.19805E-06-3.58631E-05
 -1      1193 2.05939E-04 2.20993E-04-7.03295E-04-8.10693E-06-2.97610E-05-9.19014E-05
 -1      1194 1.24211E-04 1.25857E-04-4.15995E-04-6.06871E-07 7.33172E-07-3.88742E-05
 -1      1195 1.18319E-04 1.14173E-04-3.91045E-04 2.14422E-06-2.18709E-05-4.40805E-05
 -1      1196 1.67002E-04 1.69125E-04-5.56578E-04-3.95035E-06-1.30406E-05-7.34546E-05
 -1      1197 9.98594E-05 1.06454E-04-3.27339E-04 7.61725E-07 1.77163E-05-4.02921E-05
 -1      1198 8.86454E-05 8.33307E-05-2.83366E-04 8.80773E-06-2.59301E-05-4.21150E-05
 -1      1199 1.18770E-04 1.13811E-04-3.88630E-04 1.01160E-06-1.37804E-05-5.70753E-05
 -1      1200 1.63772E-04 1.74730E-04-5.63458E-04-2.33819E-06-1.48587E-05-8.27687E-05
 -1      1201 1.42606E-04 1.40375E-04-4.63264E-04 1.67651E-06-8.94435E-06-7.83530E-05
 -1      1202 7.14249E-05 7.68229E-05-2.33336E-04-5.57400E-07 7.92779E-06-3.41850E-05
 -1      1203 6.56298E-05 5.49067E-05-1.98578E-04 1.00767E-06-1.25653E-05-3.71999E-05
 -1      1204 8.71983E-05 7.80683E-05-2.77992E-04 3.34529E-07-1.11541E-05-4.86054E-05
 -1      1205 1.19928E-04 1.28604E-04-4.13128E-04-5.15208E-06-1.33655E-05-7.45739E-05
 -1      1206 1.04838E-04 9.66212E-05-3.31800E-04 4.25457E-07-1.02948E-05-6.64010E-05
 -1      1207 4.95420E-05 4.97025E-05-1.55193E-04-1.02882E-06 6.50706E-06-3.25819E-05
 -1      1208 3.83562E-05 3.83778E-05-1.26328E-04 6.06925E-07-4.12918E-06-2.68704E-05
 -1      1209 6.22966E-05 5.45092E-05-1.94880E-04 1.49091E-06-5.77971E-06-4.37339E-05
 -1      1210 8.50011E-05 9.09442E-05-2.90164E-04-5.05318E-06-9.46481E-06-6.34975E-05
 -1      1211 6.84644E-05 6.84410E-05-2.27135E-04-1.12495E-07-9.09063E-06-5.56606E-05
 -1      1212 2.73754E-05 2.74320E-05-9.01479E-05-1.27264E-06 3.12187E-06-2.17783E-05
 -1      1213 2.28988E-05 2.05459E-05-7.16591E-05 2.44368E-07-3.37455E-06-2.11186E-05
 -1      1214 3.40952E-05 3.79235E-05-1.21322E-04 2.01975E-07-3.34374E-06-3.17933E-05
 -1      1215 5.00443E-05 5.30234E-05-1.75343E-04-1.69401E-06-2.55802E-06-5.07065E-05
 -1      1216 3.69597E-05 4.01674E-05-1.29105E-04-2.95286E-06-9.27469E-06-4.58682E-05
 -1      1217 1.35314E-05 1.12701E-05-3.88173E-05-1.10666E-06 1.67688E-06-1.46050E-05
 -1      1218 8.30478E-06 8.64845E-06-2.90169E-05-2.68924E-07-5.51595E-07-1.24921E-05
 -1      1219 1.75424E-05 1.97513E-05-6.33261E-05 8.75389E-07-9.96450E-07-2.24719E-05
 -1      1220 2.50229E-05 3.00038E-05-9.52200E-05-1.45479E-06-2.19336E-06-3.53193E-05
 -1      1221 1.68990E-05 1.58184E-05-5.70994E-05-2.20753E-06-7.81253E-06-3.13054E-05
 -1      1222 5.64947E-06 6.68746E-06-1.46041E-05 4.54415E-07-1.45048E-06-7.94686E-06
 -1      1223 3.47754E-06-7.43149E-07-2.19378E-06-3.70722E-07 1.51125E-07-7.44185E-06
 -1      1224 5.25840E-06 9.80649E-06-2.76648E-05 4.45214E-07-5.64392E-06-2.03331E-05
 -1      1225-6.16142E-07 6.43528E-07-1.70867E-06 2.23273E-07-1.67676E-06-6.40672E-06
 -1      1226-5.70599E-07 2.83926E-06-5.67420E-06-2.86709E-06 7.47969E-07-1.46120E-05
 -1      1227-3.32962E-06-2.27488E-06 4.68864E-06-3.59479E-07-1.20664E-06-1.16073E-05
 -1      1228 1.24878E-04 9.63002E-04-3.68938E-03 2.49019E-05-3.52791E-04-2.91782E-04
 -1      1229 2.10210E-04 1.18575E-03-3.31138E-03 7.83124E-05-1.45753E-04-4.36853E-04
 -1      1230 4.68152E-04 1.44690E-03-3.64448E-03 1.35018E-04-5.54152E-05-4.84178E-04
 -1      1231 8.39852E-05 1.45441E-03-3.83757E-03 5.09789E-05-2.60528E-04-1.79545E-04
 -1      1232 8.31499E-05 1.02427E-03-3.94353E-03 2.21911E-04-1.27135E-04-6.85912E-05
 -1      1233 2.21611E-04 1.81908E-03-3.97112E-03 5.64608E-05-1.01157E-04-2.29386E-04
 -1      1234 4.68696E-05 1.22796E-03-3.05268E-03-8.30014E-05-3.74047E-05 1.79968E-04
 -1      1235 8.33408E-05 1.33918E-03-3.60427E-03-8.42644E-05-2.07446E-04 1.26359E-04
 -1      1236 1.62968E-04 1.43495E-03-3.80966E-03-6.55683E-05-2.03557E-04 2.58892E-05
 -1      1237 2.46079E-04 1.54965E-03-3.83427E-03-2.25422E-05-1.72953E-04-6.93899E-05
 -1      1238 1.75909E-04 1.55910E-03-3.46382E-03-4.37352E-05-5.18829E-05 1.08374E-04
 -1      1239 4.06376E-05 1.01874E-03-2.38667E-03-1.17387E-04 2.43387E-06 2.57526E-04
 -1      1240 8.49863E-05 1.08019E-03-2.62062E-03-7.50810E-05 5.49813E-05 3.04482E-04
 -1      1241 4.31626E-07 1.20915E-06-2.42776E-06-2.39549E-07-9.00501E-07-2.36705E-06
 -1      1242 1.51098E-06 2.69519E-07-2.62905E-06 1.37402E-07-5.52053E-08-4.46556E-07
 -1      1243 2.84911E-06 1.34163E-06-6.48217E-06-2.11116E-07-1.61842E-06-5.55354E-07
 -1      1244 1.46909E-06 7.78801E-07-2.31128E-06-3.15154E-08-4.12149E-07 6.57469E-07
 -1      1245-4.75936E-07 4.31695E-07-1.63952E-06 4.36615E-07 9.56788E-08-3.64356E-06
 -1      1246-3.22349E-06 2.75164E-06-2.16267E-06-1.50234E-06-3.42682E-07-6.25875E-06
 -1      1247 1.68291E-06 1.63006E-06-5.56250E-06 3.83631E-07-1.58094E-06-5.08891E-06
 -1      1248-2.45055E-06 2.19673E-06-2.23795E-06-5.68509E-07-4.22365E-07-8.69668E-06
 -1      1249-5.75586E-06 2.95849E-06-7.30846E-08-4.50297E-07 1.59064E-08-1.02477E-05
 -1      1250-1.78676E-07 2.40913E-06-5.41193E-06-1.16925E-06-1.78965E-06-9.65743E-06
 -1      1251-8.11063E-06 1.45699E-06 4.18636E-06-1.90261E-06-3.84764E-07-8.44370E-06
 -1      1252-2.65930E-06 3.35143E-06-4.16010E-06-7.84916E-08-2.38791E-06-1.33930E-05
 -1      1253-6.98767E-06 2.98861E-06 2.26148E-06-2.10978E-06 6.10720E-07-1.12187E-05
 -1      1254-5.53377E-06-7.12834E-07 3.48413E-06 8.20745E-07-1.43562E-06-9.67768E-06
 -1      1255 7.90980E-06 1.19716E-05-3.41150E-05 9.64977E-07-4.20085E-06-1.95623E-05
 -1      1256 1.89395E-06 4.06977E-06-1.26907E-05-1.54451E-06-1.74724E-06-1.58259E-05
 -1      1257 5.87970E-06 7.21602E-06-2.19922E-05-7.40760E-07-4.68645E-06-1.53631E-05
 -1      1258 1.45944E-05 1.54786E-05-5.17297E-05-1.64380E-06-4.13430E-06-2.45743E-05
 -1      1259 1.06934E-05 1.24264E-05-4.04077E-05-3.20114E-06-7.63219E-06-2.50792E-05
 -1      1260 4.64026E-06 4.52889E-06-1.62794E-05 1.50562E-06-3.21013E-06-1.21173E-05
 -1      1261 1.01046E-05 1.01402E-05-3.40239E-05-1.72747E-06-5.09320E-06-1.38549E-05
 -1      1262 2.43517E-05 2.18472E-05-8.06804E-05 1.78823E-06-7.88145E-06-2.89292E-05
 -1      1263 1.98977E-05 1.88429E-05-6.56366E-05-1.88861E-06-9.79640E-06-2.20050E-05
 -1      1264 2.37504E-05 2.44109E-05-7.88919E-05-1.81171E-06-4.45636E-06-1.84473E-05
 -1      1265 1.56994E-05 1.53661E-05-5.11092E-05 2.75495E-06-6.11865E-06-1.45877E-05
 -1      1266 1.45442E-05 1.17717E-05-4.19557E-05 9.21673E-08-5.48214E-06-1.10654E-05
 -1      1267-1.69830E-06 5.21323E-06-9.06389E-06 1.22602E-07-3.47739E-06-1.77124E-05
 -1      1268 3.55589E-06 8.77544E-06-2.49644E-05-2.08704E-06-2.96047E-06-2.30228E-05
 -1      1269 9.68197E-07 6.52376E-06-1.57051E-05-6.49343E-07-5.64209E-06-2.02138E-05
 -1      1270-5.41061E-07 4.20600E-06-9.48399E-06-1.33355E-07-2.60297E-06-1.81472E-05
 -1      1271 9.90947E-06 1.36350E-05-4.55532E-05 2.81236E-06-5.05996E-06-2.87412E-05
 -1      1272-3.35360E-06 3.16652E-06-4.29682E-07-2.00250E-06 4.45824E-09-1.43418E-05
 -1      1273 3.85161E-06 3.86739E-06-1.46325E-05-4.78095E-07-4.58472E-06-8.16535E-06
 -1      1274 1.27572E-04 1.26543E-04-4.19909E-04-1.45852E-07-1.88229E-05-3.36774E-05
 -1      1275 1.21027E-04 1.18096E-04-3.96734E-04-2.79454E-06-1.31270E-05-4.59496E-05
 -1      1276 1.08146E-04 1.06925E-04-3.65403E-04 2.43154E-07-1.30580E-05-4.04650E-05
 -1      1277 1.20878E-04 1.23594E-04-4.07057E-04 6.10524E-07-1.41898E-05-2.01419E-05
 -1      1278 1.31490E-04 1.31910E-04-4.35064E-04-2.55482E-06-1.53493E-05-2.43821E-05
 -1      1279 9.81849E-05 9.76619E-05-3.25163E-04-2.40560E-06-1.29834E-05-4.02494E-05
 -1      1280 1.02061E-04 1.04417E-04-3.40219E-04-4.02950E-06-1.68220E-05-3.18043E-05
 -1      1281 1.08859E-04 1.09099E-04-3.59172E-04-1.96844E-06-1.30499E-05-2.14444E-05
 -1      1282 9.76056E-05 9.56455E-05-3.22137E-04 2.04693E-06-1.20038E-05-2.03612E-05
 -1      1283 1.14085E-04 1.13533E-04-3.74390E-04-1.49620E-06-1.82593E-05-9.00287E-06
 -1      1284 1.26615E-04 1.34223E-04-4.36021E-04 1.42667E-06-1.86192E-05-5.40992E-05
 -1      1285 1.10246E-04 1.11194E-04-3.67074E-04-2.84264E-06-1.49750E-05-5.46436E-05
 -1      1286 1.40021E-04 1.48538E-04-4.81218E-04-1.22195E-06-1.24995E-05-5.51476E-05
 -1      1287 1.32435E-04 1.34650E-04-4.36168E-04-4.40444E-06-1.20490E-05-6.30642E-05
 -1      1288 1.59141E-04 1.61296E-04-5.35798E-04 4.69563E-06-1.56791E-05-5.74321E-05
 -1      1289 1.56381E-04 1.56326E-04-5.11463E-04 9.79268E-07-2.47882E-05-4.15950E-05
 -1      1290 1.39094E-04 1.37966E-04-4.56802E-04 3.98763E-07-1.90094E-05-1.03464E-05
 -1      1291 1.43515E-04 1.48120E-04-4.88919E-04 3.13797E-06-1.81073E-05-2.63573E-05
 -1      1292 1.59908E-04 1.62444E-04-5.37077E-04-2.43988E-06-1.47746E-05-2.64433E-05
 -1      1293 8.53666E-05 9.47530E-05-3.05345E-04 2.83861E-06-1.35628E-05-5.32319E-05
 -1      1294 7.56826E-05 7.87418E-05-2.49529E-04-5.26436E-06-1.44329E-05-5.10721E-05
 -1      1295 8.92027E-05 8.70163E-05-2.91408E-04-5.69690E-08-1.69271E-05-4.71715E-05
 -1      1296 9.38117E-05 9.42739E-05-3.15834E-04-3.90386E-06-1.53058E-05-6.27009E-05
 -1      1297 8.34971E-05 8.37762E-05-2.82134E-04 3.90066E-06-1.48506E-05-3.60354E-05
 -1      1298 3.08593E-04 3.28592E-04-1.05337E-03-1.27921E-05-8.21476E-06-1.25605E-04
 -1      1299 3.61743E-04 3.75640E-04-1.23191E-03 7.56750E-06-3.71433E-05-1.18481E-04
 -1      1300 3.42721E-04 3.53040E-04-1.16434E-03 2.62478E-06-2.46194E-05-1.27013E-04
 -1      1301 2.51843E-04 2.73871E-04-8.76723E-04-4.74032E-06-2.17896E-05-1.15641E-04
 -1      1302 2.78772E-04 2.92643E-04-9.51214E-04 1.01793E-05-2.62212E-05-1.19752E-04
 -1      1303 3.78244E-04 3.76838E-04-1.27704E-03-8.67345E-06-2.87754E-05-1.20658E-04
 -1      1304 3.16766E-04 3.32788E-04-1.07743E-03-4.28828E-06-3.54772E-05-1.21735E-04
 -1      1305 2.28612E-04 2.38913E-04-7.98527E-04 1.30373E-05 1.18772E-05-1.01191E-04
 -1      1306 2.02425E-04 2.21504E-04-7.06379E-04-9.28585E-06-2.37278E-05-9.42118E-05
 -1      1307 2.60558E-04 2.82730E-04-8.93533E-04-7.09445E-06-1.52671E-05-1.07820E-04
 -1      1308 2.92162E-04 3.06449E-04-1.00735E-03 4.14190E-06-1.76413E-05-1.13810E-04
 -1      1309 3.75114E-04 3.94658E-04-1.28974E-03 5.72055E-06-2.47526E-05-1.10849E-04
 -1      1310 4.17131E-04 4.16758E-04-1.40939E-03-1.05569E-05-2.82300E-05-1.06780E-04
 -1      1311 4.01127E-04 4.09328E-04-1.35185E-03-1.25737E-06-3.92251E-05-9.56945E-05
 -1      1312 3.40218E-04 3.52761E-04-1.15692E-03-8.85846E-06-2.02027E-05-1.10016E-04
 -1      1313 3.18979E-04 3.20554E-04-1.07935E-03-1.80328E-06-1.48747E-05-1.11931E-04
 -1      1314 3.39331E-04 3.47254E-04-1.15155E-03-7.63177E-06-3.72289E-05-9.68701E-05
 -1      1315 2.77610E-04 2.80601E-04-9.37643E-04-9.57268E-07-3.30332E-05-1.06582E-04
 -1      1316 2.73224E-04 2.85610E-04-9.38400E-04 7.09795E-07-2.69396E-05-1.11367E-04
 -1      1317 2.34156E-04 2.38515E-04-7.96077E-04-5.39366E-06-1.40004E-05-1.12330E-04
 -1      1318 4.63338E-04 4.82954E-04-1.58170E-03 2.37552E-06-4.47458E-05-1.03439E-04
 -1      1319 4.44242E-04 4.69866E-04-1.53835E-03 7.61492E-06-3.29633E-05-1.14721E-04
 -1      1320 4.70090E-04 4.84965E-04-1.60356E-03-9.15896E-06-3.65805E-05-1.15368E-04
 -1      1321 4.21103E-04 4.41493E-04-1.44884E-03 2.38804E-06-3.93503E-05-1.27834E-04
 -1      1322 3.87594E-04 4.15388E-04-1.35203E-03 2.41686E-06-3.63450E-05-1.23249E-04
 -1      1323 5.22664E-04 5.33401E-04-1.77103E-03 4.56316E-06-3.14917E-05-5.42572E-05
 -1      1324 5.52158E-04 5.68357E-04-1.87163E-03-5.34396E-06-3.30870E-05-4.49790E-05
 -1      1325 5.37454E-04 5.51647E-04-1.82496E-03-8.34133E-07-4.35461E-05-7.05136E-05
 -1      1326 4.98106E-04 5.13927E-04-1.68998E-03-6.58117E-06-3.20683E-05-4.37653E-05
 -1      1327 5.17666E-04 5.22033E-04-1.72917E-03-3.78743E-06-4.15214E-05-2.63404E-05
 -1      1328 5.28799E-04 5.50886E-04-1.82399E-03 9.52235E-06-4.29196E-05-8.87551E-05
 -1      1329 5.03219E-04 5.18454E-04-1.70825E-03-9.00602E-06-3.74496E-05-8.46833E-05
 -1      1330 4.70848E-04 4.86028E-04-1.60239E-03 4.38622E-06-3.46568E-05-8.44100E-05
 -1      1331 4.48413E-04 4.63251E-04-1.52723E-03 4.61238E-06-3.69914E-05-8.22521E-05
 -1      1332 4.85364E-04 4.98303E-04-1.63971E-03 4.40121E-06-4.10919E-05-7.01788E-05
 -1      1333 4.73658E-04 4.86619E-04-1.60332E-03 9.64476E-06-3.67192E-05-4.08440E-05
 -1      1334 5.61728E-04 5.76580E-04-1.89979E-03-5.64275E-06-3.14764E-05-2.28938E-05
 -1      1335 5.72171E-04 5.99725E-04-1.96863E-03 3.73881E-06-3.51581E-05-4.31418E-05
 -1      1336 5.23165E-04 5.54414E-04-1.81008E-03 8.56636E-07-2.95171E-05-4.64903E-06
 -1      1337 5.64438E-04 5.95955E-04-1.92507E-03-8.02491E-06-2.82556E-05 7.09835E-06
 -1      1338 5.14969E-04 5.19537E-04-1.72194E-03-2.34492E-06-2.71393E-05-3.13645E-06
 -1      1339 5.65560E-04 6.00541E-04-1.95540E-03-6.20889E-06-4.70925E-05-8.49794E-05
 -1      1340 5.30542E-04 5.57728E-04-1.82973E-03-2.08267E-06-5.05593E-05-1.07275E-04
 -1      1341 5.93099E-04 6.38145E-04-2.07266E-03 7.16268E-06-4.17109E-05-7.98131E-05
 -1      1342 5.93541E-04 6.13186E-04-2.02232E-03-2.04821E-06-3.74549E-05-6.40963E-05
 -1      1343 6.07638E-04 6.25940E-04-2.07234E-03-8.35791E-07-2.66972E-05-4.45909E-05
 -1      1344 5.33342E-05 5.85184E-05-1.85014E-04-2.60664E-06-1.32271E-05-4.47248E-05
 -1      1345 4.34694E-05 4.73585E-05-1.51813E-04 2.46146E-06-4.55737E-06-4.30481E-05
 -1      1346 4.98123E-05 4.96459E-05-1.60694E-04-1.86617E-06-1.50913E-05-3.90989E-05
 -1      1347 6.29814E-05 6.46597E-05-2.22630E-04-6.96852E-07-1.72936E-05-4.39374E-05
 -1      1348 6.63482E-05 6.19550E-05-2.18130E-04 1.54253E-06-7.33248E-06-5.15754E-05
 -1      1349 5.29172E-05 5.40608E-05-1.78974E-04-1.20875E-06-1.21261E-05-3.05142E-05
 -1      1350 4.20740E-05 4.60353E-05-1.46115E-04 1.31634E-06-1.08538E-05-2.96899E-05
 -1      1351 6.48841E-05 6.44591E-05-2.12541E-04 1.10615E-06-1.46917E-05-3.02723E-05
 -1      1352 7.37019E-05 7.04804E-05-2.39977E-04-2.74515E-06-1.26427E-05-3.26258E-05
 -1      1353 5.90294E-05 5.94952E-05-1.94588E-04-2.79942E-08-1.54363E-05-2.45500E-05
 -1      1354 3.18920E-05 3.72553E-05-1.17396E-04 1.03047E-06-6.86550E-06-3.98515E-05
 -1      1355 3.76090E-05 4.33898E-05-1.32798E-04-1.76811E-06-3.19487E-06-4.33599E-05
 -1      1356 6.03144E-05 6.72328E-05-2.14851E-04 4.82873E-06-9.57939E-06-5.32093E-05
 -1      1357 4.62475E-05 5.30969E-05-1.70635E-04-6.97057E-07-8.38174E-06-5.05401E-05
 -1      1358 5.47445E-05 6.08548E-05-1.92146E-04-4.24471E-06-6.94357E-06-5.55017E-05
 -1      1359 3.27164E-05 3.67182E-05-1.16651E-04-1.64382E-06-9.73113E-06-4.39590E-05
 -1      1360 2.72246E-05 3.03488E-05-9.53283E-05-2.14164E-06-7.41908E-06-3.32391E-05
 -1      1361 2.06132E-05 2.44036E-05-7.63011E-05-3.73252E-06-4.80421E-06-3.47927E-05
 -1      1362 3.27359E-05 3.35768E-05-1.12430E-04 1.30151E-07-1.11027E-05-2.96050E-05
 -1      1363 3.93095E-05 3.56586E-05-1.27116E-04-8.33090E-07-1.05663E-05-2.42837E-05
 -1      1364 4.98909E-04 7.42373E-04-2.21932E-03-1.57325E-06-3.19813E-05 5.29062E-05
 -1      1365 4.57017E-04 6.23922E-04-1.88508E-03 7.09296E-08-5.75613E-06 6.08894E-05
 -1      1366 4.83061E-04 6.54210E-04-2.00900E-03-9.08691E-06-3.21382E-05 6.96075E-06
 -1      1367 5.03823E-04 8.22346E-04-2.42013E-03-8.32775E-06-4.99850E-05 6.56239E-05
 -1      1368 4.59674E-04 8.06027E-04-2.33192E-03-1.77560E-06-5.29988E-05 1.42685E-04
 -1      1369 5.19739E-04 6.72495E-04-2.08338E-03-7.58675E-06-2.54922E-05-3.20667E-05
 -1      1370 4.51056E-04 5.66816E-04-1.75241E-03 5.95666E-07-4.53754E-05-3.08076E-05
 -1      1371 5.90311E-04 8.46499E-04-2.56268E-03-1.08172E-05-5.06784E-05-4.80649E-05
 -1      1372 5.65432E-04 7.62054E-04-2.33267E-03-4.47281E-07-4.52755E-05-4.66359E-05
 -1      1373 6.24118E-04 8.32281E-04-2.56613E-03 3.45379E-06-4.44582E-05-8.32305E-05
 -1      1374 6.10463E-04 9.70046E-04-2.82629E-03-4.74712E-06-5.70566E-05-6.87725E-05
 -1      1375 5.50449E-04 8.77326E-04-2.60893E-03 5.57539E-06-5.46367E-05-8.65151E-06
 -1      1376 5.41051E-04 6.76161E-04-2.12315E-03-4.65554E-06-3.58406E-05-6.14148E-05
 -1      1377 4.90375E-04 9.49468E-04-2.70808E-03 6.22847E-07-5.57371E-05 4.65082E-05
 -1      1378 4.29461E-04 6.19056E-04-1.83480E-03-8.55365E-06-2.15788E-05 9.96751E-05
 -1      1379 4.17294E-04 7.25531E-04-2.06653E-03 6.01049E-06-2.87564E-05 1.74604E-04
 -1      1380 4.19332E-04 7.95041E-04-2.27481E-03-4.87430E-06-2.16760E-05 2.12338E-04
 -1      1381 4.20848E-04 5.14105E-04-1.62274E-03 9.83822E-06-1.08591E-05-5.43610E-05
 -1      1382 9.84657E-05 1.09424E-04-3.50531E-04 2.74492E-06-2.01134E-05-6.77369E-05
 -1      1383 8.04638E-05 8.50232E-05-2.72602E-04-2.95040E-06-1.58037E-05-6.27659E-05
 -1      1384 6.34832E-05 7.13624E-05-2.24471E-04-4.64816E-06-9.19288E-06-6.21454E-05
 -1      1385 5.82357E-05 6.69197E-05-2.16970E-04 1.98655E-06-1.24878E-05-5.89186E-05
 -1      1386 4.46446E-05 4.78426E-05-1.55796E-04-2.74616E-06-7.35749E-06-5.03485E-05
 -1      1387 8.28944E-05 8.09861E-05-2.68625E-04-3.85909E-07-1.50457E-05-2.76756E-05
 -1      1388 1.38754E-04 1.48603E-04-4.78917E-04-1.50692E-06-2.30020E-05-7.13079E-05
 -1      1389 1.22723E-04 1.29716E-04-4.10134E-04-1.01637E-06-1.91219E-05-6.85606E-05
 -1      1390 1.60058E-04 1.59572E-04-5.39597E-04 6.21905E-06-2.12076E-05-7.26167E-05
 -1      1391 1.46903E-04 1.53189E-04-4.96071E-04-2.13966E-06-1.55004E-05-7.54136E-05
 -1      1392 1.74216E-04 1.76060E-04-5.84026E-04-2.24884E-06-1.41746E-05-5.94290E-05
 -1      1393 1.01787E-04 1.13071E-04-3.55879E-04-3.74794E-06-1.32037E-05-7.54774E-05
 -1      1394 1.50266E-04 1.52180E-04-5.10128E-04-7.08635E-07-2.36339E-05-8.11367E-05
 -1      1395 1.26340E-04 1.30256E-04-4.27145E-04-3.40342E-06-1.25176E-05-7.93472E-05
 -1      1396 1.01605E-04 1.13162E-04-3.59678E-04-3.65110E-07-1.14650E-05-7.42677E-05
 -1      1397 1.01426E-04 1.12008E-04-3.57237E-04 1.31799E-07-1.90948E-05-7.70971E-05
 -1      1398 8.51937E-05 8.50020E-05-2.82658E-04-5.19683E-06-7.39518E-06-6.89434E-05
 -1      1399 4.45321E-04 4.42689E-04-1.47094E-03-3.19901E-06-4.18350E-05-5.96761E-05
 -1      1400 4.19541E-04 4.37422E-04-1.43065E-03-3.85518E-06-2.81620E-05-7.98225E-05
 -1      1401 3.93226E-04 3.99215E-04-1.32558E-03-2.54141E-07-2.85958E-05-8.03320E-05
 -1      1402 4.21854E-04 4.32360E-04-1.42571E-03 1.74299E-06-3.02862E-05-3.70167E-05
 -1      1403 4.44386E-04 4.55908E-04-1.50602E-03-3.91176E-06-2.91986E-05-3.86925E-05
 -1      1404 4.65832E-04 4.63639E-04-1.54225E-03 2.75643E-06-3.75339E-05-1.41385E-05
 -1      1405 1.94311E-04 1.96772E-04-6.58782E-04-1.03677E-06-1.66656E-05-8.42579E-05
 -1      1406 1.76771E-04 1.76708E-04-5.99565E-04-5.59501E-07-1.26533E-05-8.53894E-05
 -1      1407 1.90706E-04 1.95956E-04-6.48859E-04-5.72878E-06-2.76895E-05-7.39757E-05
 -1      1408 2.29583E-04 2.33753E-04-7.68860E-04-2.66140E-06-2.64843E-05-7.85197E-05
 -1      1409 2.09408E-04 2.14392E-04-7.03884E-04-2.09988E-06-1.81182E-05-9.26381E-05
 -1      1410 2.12174E-04 2.10849E-04-7.06866E-04-5.49234E-06-2.21513E-05-6.15841E-05
 -1      1411 1.86293E-04 1.90912E-04-6.37443E-04 2.68565E-06-2.08144E-05-5.95832E-05
 -1      1412 2.30880E-04 2.33573E-04-7.70022E-04-9.96984E-07-1.75259E-05-6.37007E-05
 -1      1413 2.40322E-04 2.47237E-04-8.05375E-04-5.45416E-06-2.17581E-05-6.82153E-05
 -1      1414 2.22508E-04 2.22969E-04-7.39403E-04-7.41268E-06-2.91182E-05-4.81838E-05
 -1      1415 1.49217E-04 1.60189E-04-5.17416E-04 1.69139E-06-2.01346E-05-8.72381E-05
 -1      1416 2.08953E-04 2.24108E-04-7.15879E-04 6.57203E-07-3.03351E-05-9.55697E-05
 -1      1417 1.80462E-04 1.77915E-04-6.06813E-04-3.81556E-06-1.76743E-05-9.09598E-05
 -1      1418 1.45495E-04 1.57787E-04-5.10732E-04-9.76608E-07-1.55923E-05-8.96120E-05
 -1      1419 1.49087E-04 1.55100E-04-5.08584E-04 2.22037E-07-2.42632E-05-9.20707E-05
 -1      1420 1.24966E-04 1.26112E-04-4.18755E-04-5.86912E-06-9.05105E-06-8.46113E-05
 -1      1421 1.93401E-04 1.90606E-04-6.30523E-04 7.22153E-07-2.35568E-05-4.32857E-05
 -1      1422 5.02100E-04 5.35194E-04-1.76136E-03 1.24450E-05-3.87224E-05-1.17097E-04
 -1      1423 2.67385E-04 2.84083E-04-9.20328E-04 4.14442E-06-2.86536E-05-9.90947E-05
 -1      1424 2.44498E-04 2.40999E-04-8.07983E-04-1.49623E-06-1.85727E-05-9.11610E-05
 -1      1425 2.67136E-04 2.70946E-04-8.83669E-04-6.22630E-06-2.26880E-05-8.22427E-05
 -1      1426 3.05418E-04 3.01608E-04-1.01966E-03 9.49070E-06-2.62794E-05-9.56661E-05
 -1      1427 2.76043E-04 2.88050E-04-9.33320E-04-1.94533E-06-1.75363E-05-1.03568E-04
 -1      1428 2.82623E-04 2.93827E-04-9.62951E-04-8.42383E-07-2.03058E-05-7.09748E-05
 -1      1429 2.60307E-04 2.69230E-04-8.84930E-04 3.08906E-06-2.27329E-05-6.93162E-05
 -1      1430 3.06238E-04 3.08079E-04-1.02715E-03 6.06830E-06-2.10333E-05-7.55329E-05
 -1      1431 3.20249E-04 3.23696E-04-1.07315E-03-2.50821E-06-2.04457E-05-7.89678E-05
 -1      1432 3.00469E-04 3.04572E-04-9.96719E-04 9.94375E-07-3.15739E-05-5.53467E-05
 -1      1433 2.04086E-04 2.18517E-04-7.09025E-04 7.63739E-07-2.08163E-05-9.89098E-05
 -1      1434 2.42986E-04 2.43231E-04-8.12733E-04-4.33262E-06-1.49410E-05-1.05336E-04
 -1      1435 1.99623E-04 2.12319E-04-6.86601E-04 9.14671E-07-1.72028E-05-1.00282E-04
 -1      1436 2.04768E-04 2.08703E-04-6.89773E-04 3.77310E-07-2.99830E-05-1.05343E-04
 -1      1437 1.75276E-04 1.71490E-04-5.77783E-04-6.26644E-06-1.01164E-05-9.75148E-05
 -1      1438 2.59546E-04 2.60776E-04-8.65847E-04-1.33718E-06-2.91290E-05-5.19857E-05
 -1      1439 3.68667E-04 3.90725E-04-1.26496E-03-3.80651E-06-2.08316E-05-1.14544E-04
 -1      1440 3.80791E-04 3.93061E-04-1.30461E-03-8.54440E-06-3.49342E-05-1.21054E-04
 -1      1441 4.25789E-04 4.65150E-04-1.50673E-03 6.74530E-06-1.39340E-05-1.24232E-04
 -1      1442 3.61502E-04 4.06835E-04-1.29285E-03 1.55209E-06-1.05576E-05-9.38297E-05
 -1      1443 4.92698E-04 5.28217E-04-1.71936E-03-1.16038E-05-3.14639E-05-1.20940E-04
 -1      1444 4.75847E-04 5.19848E-04-1.69391E-03 9.27018E-07-2.23777E-05-1.19474E-04
 -1      1445 3.92461E-04 4.40545E-04-1.38084E-03-2.01678E-06-2.01270E-06-9.39415E-05
 -1      1446 5.21541E-04 5.92076E-04-1.90052E-03 2.46475E-06-2.78081E-05-1.13351E-04
 -1      1447 4.72134E-04 5.26464E-04-1.68243E-03-6.27552E-06-1.43020E-05-1.10015E-04
 -1      1448 4.41995E-04 5.08399E-04-1.61187E-03-7.66315E-06-2.65992E-05-8.91864E-05
 -1      1449 3.33334E-04 3.18280E-04-1.11894E-03-4.70525E-06-1.46019E-05-1.10271E-04
 -1      1450 5.48545E-04 6.02234E-04-1.93880E-03-6.20562E-06-4.52711E-05-1.13047E-04
 -1      1451 3.66911E-04 3.69664E-04-1.23287E-03-6.94800E-06-2.91076E-05-8.11600E-05
 -1      1452 3.32515E-04 3.42337E-04-1.13999E-03 3.45598E-06-2.66087E-05-7.99938E-05
 -1      1453 3.87403E-04 3.88439E-04-1.28996E-03-1.01262E-05-4.03735E-05-6.20221E-05
 -1      1454 3.47138E-04 3.46051E-04-1.14129E-03 1.18625E-07-3.01969E-05-5.78482E-05
 -1      1455 5.99149E-04 6.42301E-04-2.08948E-03-4.96850E-06-4.36737E-05-9.76778E-05
 -1      1456 5.81084E-04 6.48538E-04-2.09671E-03 3.51675E-06-4.87773E-05-1.03571E-04
 -1      1457 6.31662E-04 6.71534E-04-2.19968E-03-3.96709E-06-3.83498E-05-7.42019E-05
 -1      1458 5.63656E-06 4.13133E-06-1.48927E-05 2.37849E-07-1.51409E-06 6.99675E-07
 -1      1459 7.85080E-06 6.85114E-06-2.24802E-05 6.30242E-07-3.39771E-06 2.29477E-06
 -1      1460 1.23245E-05 9.32835E-06-3.41713E-05-8.06544E-07-2.11019E-06 2.05807E-06
 -1      1461 5.76513E-06 3.81461E-06-1.46978E-05-2.41858E-09-2.98361E-06-1.92230E-06
 -1      1462 5.54365E-04 6.51372E-04-2.07640E-03-1.13987E-06-4.00837E-05-1.01272E-04
 -1      1463 5.72050E-04 6.49840E-04-2.06976E-03-2.63508E-06-4.96035E-05-1.08423E-04
 -1      1464 5.98067E-04 7.28776E-04-2.28990E-03 2.90534E-06-3.89469E-05-9.60702E-05
 -1      1465 5.56602E-04 6.64376E-04-2.11053E-03-3.86444E-06-3.05593E-05-8.57790E-05
 -1      1466 6.18755E-04 6.97151E-04-2.24653E-03-2.23056E-06-4.09944E-05-1.02218E-04
 -1      1467 6.41425E-04 7.66389E-04-2.41513E-03-1.98754E-07-4.94202E-05-9.89361E-05
 -1      1468 6.27589E-04 7.95800E-04-2.47518E-03-7.37505E-07-4.97949E-05-9.13398E-05
 -1      1469 6.43022E-04 7.49361E-04-2.38912E-03 2.17425E-06-5.20977E-05-9.73505E-05
 -1      1470 6.59824E-04 7.34481E-04-2.36566E-03-2.23959E-06-5.63005E-05-9.30205E-05
 -1      1471 6.79466E-04 8.14569E-04-2.56961E-03-2.07785E-07-4.20243E-05-1.00647E-04
 -1      1472 5.05511E-04 5.93563E-04-1.87881E-03 2.45221E-06-3.82324E-05-8.12238E-05
 -1      1473 1.93289E-04 1.89406E-04-6.45551E-04 4.01208E-06-1.26027E-05-8.58516E-05
 -1      1474 1.96207E-04 1.98385E-04-6.64195E-04 1.63940E-06-1.84864E-05-8.93065E-05
 -1      1475 6.72053E-04 8.77463E-04-2.67150E-03 2.62984E-06-4.82735E-05-1.03899E-04
 -1      1476 6.77122E-04 9.83171E-04-2.97256E-03 5.56379E-06-7.83301E-05-1.18756E-04
 -1      1477 7.18911E-04 9.37900E-04-2.90873E-03 1.34058E-05-6.20837E-05-1.20422E-04
 -1      1478 7.40727E-04 1.00231E-03-3.07705E-03 4.04659E-06-5.15715E-05-1.62231E-04
 -1      1479 6.12218E-04 1.04738E-03-3.03818E-03 9.82846E-06-7.33760E-05-1.02720E-04
 -1      1480 7.02994E-04 8.94471E-04-2.77361E-03 2.57765E-06-4.32303E-05-1.05002E-04
 -1      1481 7.57048E-04 8.95604E-04-2.85494E-03 1.44551E-05-4.93293E-05-1.15351E-04
 -1      1482 7.09577E-04 8.49403E-04-2.68866E-03 6.46685E-06-5.16786E-05-1.02549E-04
 -1      1483 3.95852E-04 4.01719E-04-1.32869E-03-3.72938E-06-2.69393E-05-4.10116E-05
 -1      1484 4.11371E-04 4.06674E-04-1.35383E-03-3.00527E-06-3.40110E-05-1.83957E-05
 -1      1485 3.71761E-04 3.73720E-04-1.24901E-03 6.92492E-07-2.49131E-05-3.85966E-05
 -1      1486 4.05635E-04 4.15182E-04-1.37590E-03-5.61231E-06-2.34198E-05 1.14091E-05
 -1      1487 4.16594E-04 4.56551E-04-1.44652E-03 5.02522E-06-2.01471E-05 8.43146E-06
 -1      1488 3.78249E-04 3.87337E-04-1.28857E-03 3.62368E-06-2.68498E-05-2.69671E-07
 -1      1489 4.56593E-04 4.92227E-04-1.56127E-03-4.09408E-06-4.74266E-06 1.74788E-05
 -1      1490 1.45280E-04 1.53044E-04-4.98786E-04 2.25633E-06-1.76319E-05-8.30956E-05
 -1      1491 1.03759E-04 1.04737E-04-3.52000E-04 2.19561E-06-1.36842E-05-7.06212E-05
 -1      1492 7.09107E-04 7.77782E-04-2.55363E-03 4.52128E-06-4.95728E-05-3.33683E-05
 -1      1493 7.78006E-04 8.27721E-04-2.69009E-03-2.97953E-06-4.44027E-05-5.78182E-05
 -1      1494 7.20214E-04 7.86831E-04-2.51678E-03-2.99304E-06-3.00644E-05-3.01208E-05
 -1      1495 7.37264E-04 8.20967E-04-2.66045E-03-3.21728E-06-3.66669E-05-6.78443E-05
 -1      1496 7.66673E-04 8.54199E-04-2.76569E-03 1.48900E-05-4.83096E-05-8.86118E-05
 -1      1497 7.12352E-04 7.66974E-04-2.48578E-03-2.41348E-06-4.24348E-05-4.76382E-05
 -1      1498 6.74175E-04 7.38432E-04-2.37563E-03 1.69948E-05-4.16767E-05-3.09020E-05
 -1      1499 6.93605E-04 7.58282E-04-2.45109E-03-8.97430E-06-4.78571E-05-7.73870E-05
 -1      1500 7.16835E-04 8.03435E-04-2.57363E-03 1.08521E-06-4.67197E-05-7.22869E-05
 -1      1501 7.11461E-04 8.31842E-04-2.62374E-03 1.84942E-06-5.75884E-05-9.15437E-05
 -1      1502 7.90248E-04 8.93700E-04-2.87340E-03-3.79482E-06-3.98888E-05-1.04816E-04
 -1      1503 8.06458E-04 8.89727E-04-2.83830E-03 1.29053E-05-4.18583E-05-6.94998E-05
 -1      1504 8.05114E-04 9.39286E-04-2.99245E-03 1.38647E-05-4.03575E-05-1.29473E-04
 -1      1505 7.63478E-05 7.27494E-05-2.46588E-04 1.33496E-06-1.03808E-05-1.99476E-05
 -1      1506 8.76833E-05 8.55720E-05-2.88401E-04-1.70281E-06-1.09467E-05-1.87056E-05
 -1      1507 6.51280E-05 6.52674E-05-2.15310E-04-2.27584E-06-1.00611E-05-1.56593E-05
 -1      1508 7.03817E-05 6.84091E-05-2.29433E-04-8.75763E-07-1.53165E-05-8.59879E-06
 -1      1509 5.44334E-05 5.33149E-05-1.77681E-04 3.60975E-06-1.26927E-05-1.52841E-05
 -1      1510 8.96964E-05 9.12158E-05-3.01795E-04-3.05776E-06-1.59163E-05-9.19834E-06
 -1      1511 7.10303E-05 6.80368E-05-2.30311E-04 9.96043E-08-1.10996E-05 2.95921E-06
 -1      1512 8.48882E-05 7.92733E-05-2.69993E-04 6.13317E-07-1.39292E-05-5.06091E-07
 -1      1513 9.38921E-05 9.01884E-05-3.01923E-04-7.79577E-07-1.39580E-05 1.06797E-06
 -1      1514 6.55726E-05 7.60800E-05-2.35551E-04 2.52282E-06-1.73430E-05-5.99262E-05
 -1      1515 3.13479E-05 3.86427E-05-1.19353E-04-3.95259E-06-1.12806E-05-4.44318E-05
 -1      1516 6.71524E-04 6.92357E-04-2.28586E-03-9.81508E-07-4.62293E-05-3.57561E-05
 -1      1517 6.72765E-04 6.84000E-04-2.25688E-03 1.12007E-05-3.57422E-05-1.78107E-05
 -1      1518 6.13048E-04 6.34301E-04-2.12641E-03-7.03464E-06-4.12351E-05 1.47856E-06
 -1      1519 2.82750E-05 3.52787E-05-1.06906E-04-8.12641E-07-4.99269E-06-4.42362E-05
 -1      1520 2.14418E-05 3.15328E-05-8.80631E-05-5.42132E-06-4.35050E-06-4.02642E-05
 -1      1521 1.43782E-05 1.73725E-05-6.12739E-05 1.36477E-06-5.92227E-06-3.21311E-05
 -1      1522 4.23853E-06 4.78778E-06-1.99679E-05-1.01138E-06-2.81027E-06-2.27941E-05
 -1      1523 8.16911E-06 1.05247E-05-3.48535E-05-2.98245E-07 1.68801E-06-2.49421E-05
 -1      1524 1.39771E-05 1.62472E-05-5.77193E-05-1.69010E-06-8.09407E-06-3.54523E-05
 -1      1525 1.14286E-04 1.14273E-04-3.84118E-04-2.85009E-06-1.16199E-05 3.57273E-06
 -1      1526 1.24769E-04 1.25748E-04-4.18731E-04 3.73006E-06-1.39287E-05-7.53015E-07
 -1      1527 1.01218E-04 1.01644E-04-3.41171E-04-1.31824E-06-1.41338E-05 3.37999E-06
 -1      1528 1.40700E-04 1.44729E-04-4.74656E-04-3.95449E-06-1.38720E-05 4.98825E-06
 -1      1529 6.06965E-04 1.26130E-03-3.51768E-03 2.66017E-05-7.20725E-05-3.56192E-04
 -1      1530 4.82378E-04 1.27895E-03-3.48845E-03 2.58828E-05-1.31659E-04-2.19212E-04
 -1      1531 6.03719E-04 1.19451E-03-3.38838E-03 2.86897E-05-9.80913E-05-2.34165E-04
 -1      1532 7.68098E-04 1.16870E-03-3.51082E-03 3.44601E-05-5.97588E-05-3.78199E-04
 -1      1533 6.37074E-04 1.26988E-03-3.59170E-03 4.28548E-05-7.80744E-05-4.04971E-04
 -1      1534 6.04404E-04 1.12337E-03-3.22768E-03 4.24275E-07-7.58869E-05-1.53723E-04
 -1      1535 6.99350E-04 1.10097E-03-3.28662E-03 2.40084E-06-8.40136E-05-2.30278E-04
 -1      1536 7.51963E-04 1.03320E-03-3.16466E-03 1.26928E-05-7.49595E-05-1.85841E-04
 -1      1537 8.05611E-04 1.09001E-03-3.32198E-03-7.29932E-06-6.27023E-05-2.53133E-04
 -1      1538 7.89966E-04 1.12581E-03-3.39515E-03 2.59488E-05-6.33518E-05-3.03292E-04
 -1      1539 8.42404E-04 1.08263E-03-3.28714E-03 1.18630E-05-5.01255E-05-2.42130E-04
 -1      1540 8.47241E-04 1.09842E-03-3.40101E-03 7.38127E-06-1.13323E-05-3.91586E-04
 -1      1541 3.89923E-04 1.31344E-03-3.42770E-03-2.47714E-05-9.03454E-05-8.36093E-05
 -1      1542 3.53429E-04 1.39861E-03-3.60187E-03 1.96618E-05-1.10630E-04-1.73161E-04
 -1      1543 4.45041E-04 1.39738E-03-3.70419E-03 6.47157E-05-1.25318E-04-4.05727E-04
 -1      1544 5.39778E-04 1.30085E-03-3.60533E-03 4.06399E-05-4.83372E-05-5.01561E-04
 -1      1545 3.32177E-04 1.48180E-03-3.78174E-03 6.59884E-05-1.64715E-04-2.31077E-04
 -1      1546 5.28714E-04 1.10445E-03-3.09871E-03-4.08641E-06-7.86419E-05-6.41505E-05
 -1      1547 4.24020E-04 1.19865E-03-3.20579E-03 6.83897E-06-1.02146E-04-1.57485E-05
 -1      1548 4.77636E-04 1.08349E-03-2.95341E-03-7.68307E-06-6.03903E-05 1.50232E-05
 -1      1549 3.14634E-04 1.31684E-03-3.32239E-03-9.59686E-06-8.35367E-05 4.35251E-05
 -1      1550 1.75053E-04 1.79313E-04-5.93793E-04 3.59794E-06-2.04232E-05-3.13244E-05
 -1      1551 1.96954E-04 1.94387E-04-6.50855E-04-7.85418E-07-1.72492E-05-2.73675E-05
 -1      1552 1.69970E-04 1.66657E-04-5.54115E-04-2.81926E-06-2.36101E-05-1.36800E-05
 -1      1553 2.01404E-04 2.02985E-04-6.61794E-04-3.51002E-06-2.26541E-05-1.55108E-05
 -1      1554 2.11511E-04 2.11919E-04-7.06406E-04-5.58574E-07-1.87584E-05-2.89020E-05
 -1      1555 1.71324E-04 1.71547E-04-5.72312E-04-3.92874E-06-1.65212E-05 5.46765E-06
 -1      1556 1.85451E-04 1.87537E-04-6.24608E-04 2.93885E-06-1.74399E-05 1.72532E-06
 -1      1557 1.53430E-04 1.56470E-04-5.21812E-04 3.83623E-06-1.79943E-05 2.77573E-06
 -1      1558 2.02747E-04 2.03585E-04-6.79780E-04-3.94212E-06-1.66378E-05 5.51510E-06
 -1      1559 2.26549E-04 2.30058E-04-7.61536E-04-3.70524E-06-2.09084E-05-3.27752E-05
 -1      1560 5.66482E-04 5.97458E-04-1.96004E-03 1.14108E-05-4.63987E-05 5.91631E-06
 -1      1561 6.19263E-04 6.34048E-04-2.08287E-03-4.26684E-06-4.14180E-05-1.91904E-05
 -1      1562 6.15912E-04 6.40976E-04-2.08383E-03-1.43777E-05-3.09485E-05 1.62248E-05
 -1      1563 6.31305E-04 6.54981E-04-2.16472E-03 3.09205E-06-3.78542E-05-4.62492E-05
 -1      1564 4.70398E-04 4.74887E-04-1.60724E-03 7.04131E-06-3.87185E-05 6.03530E-06
 -1      1565 7.94421E-04 9.94338E-04-3.07840E-03 1.78473E-05-4.83022E-05-1.61446E-04
 -1      1566 8.35662E-04 9.54737E-04-3.07254E-03 7.53224E-06-1.70862E-05-1.54438E-04
 -1      1567 2.49142E-04 2.47277E-04-8.28113E-04 6.31421E-06-2.48934E-05-3.69405E-05
 -1      1568 2.69504E-04 2.70499E-04-8.95558E-04-2.19377E-06-2.59045E-05-3.41684E-05
 -1      1569 2.40654E-04 2.34115E-04-7.83152E-04-1.12099E-06-2.84524E-05-1.56370E-05
 -1      1570 2.77544E-04 2.73516E-04-9.06840E-04-2.53365E-06-2.66261E-05-1.48448E-05
 -1      1571 2.84128E-04 2.92718E-04-9.64173E-04 3.46604E-06-2.63484E-05-3.57353E-05
 -1      1572 2.36701E-04 2.42011E-04-8.02714E-04-4.55060E-06-1.81377E-05 7.15581E-06
 -1      1573 2.51143E-04 2.55815E-04-8.50132E-04 4.93674E-06-1.83616E-05-2.85692E-06
 -1      1574 2.18254E-04 2.20416E-04-7.36314E-04 2.49616E-06-2.09289E-05 7.30969E-07
 -1      1575 2.75529E-04 2.87101E-04-9.36443E-04-7.26858E-06-1.91467E-05 6.89478E-06
 -1      1576 3.02996E-04 3.09925E-04-1.02235E-03-3.64129E-06-2.08639E-05-3.62565E-05
 -1      1577 3.23576E-04 3.33416E-04-1.10035E-03 4.88617E-06-2.74791E-05-4.33473E-05
 -1      1578 3.52204E-04 3.51487E-04-1.17223E-03-1.31740E-06-2.26971E-05-3.78228E-05
 -1      1579 3.18485E-04 3.15494E-04-1.04661E-03-4.17861E-06-3.29118E-05-1.93228E-05
 -1      1580 3.60339E-04 3.65138E-04-1.19314E-03-4.61426E-06-3.02761E-05-2.11530E-05
 -1      1581 3.17044E-04 3.21768E-04-1.06840E-03-5.87164E-06-2.41445E-05 8.02887E-06
 -1      1582 3.34851E-04 3.42840E-04-1.13710E-03 3.90961E-06-2.39185E-05 8.06443E-08
 -1      1583 2.92809E-04 2.99830E-04-9.99591E-04 5.47765E-06-2.75749E-05 1.73382E-06
 -1      1584 3.58713E-04 3.64722E-04-1.21379E-03-5.97287E-06-2.24071E-05 7.76246E-06
 -1      1585 3.97945E-04 1.04843E-03-2.80460E-03 8.16764E-06-5.86235E-05 1.47042E-04
 -1      1586 3.70284E-04 9.54489E-04-2.58818E-03-4.20648E-05-3.21166E-05 2.20601E-04
 -1      1587 3.57361E-04 8.31731E-04-2.31120E-03-2.26143E-05-2.58505E-05 2.86680E-04
 -1      1588 3.26720E-04 1.09747E-03-2.88691E-03-1.87078E-05-4.61752E-05 2.09951E-04
 -1      1589 1.45663E-04 9.74114E-04-2.44471E-03-2.70369E-05 6.33576E-07 3.48247E-04
 -1      1590 2.02911E-04 1.14430E-03-2.90395E-03-8.35190E-06-6.74339E-05 2.76498E-04
 -1      1591 2.26832E-04 1.25593E-03-3.11616E-03-4.15958E-05-6.42412E-05 1.65659E-04
 -1      1592 6.54621E-04 6.87578E-04-2.26589E-03-2.61857E-06-3.74793E-05-6.13604E-05
 -1      1593 6.55902E-04 7.18653E-04-2.32632E-03 1.06703E-05-5.13834E-05-7.54925E-05
 -1      1594 3.25484E-05 2.99687E-05-1.05209E-04 1.69274E-06-9.91463E-06-1.73092E-05
 -1      1595 2.93920E-05 2.66400E-05-8.94688E-05 5.64070E-07-7.72298E-06-1.22579E-05
 -1      1596 4.29426E-05 4.06419E-05-1.40601E-04-3.22073E-06-9.47473E-06-1.60756E-05
 -1      1597 6.08448E-06 4.48223E-06-1.63150E-05 1.41030E-08-2.86397E-06-5.67543E-06
 -1      1598 9.78976E-06 7.04184E-06-2.63973E-05-4.70948E-07-4.17426E-06-4.91240E-06
 -1      1599 8.08873E-04 1.03003E-03-3.13709E-03 2.44123E-05-8.96921E-06-1.63014E-04
 -1      1600 2.19095E-05 2.29636E-05-7.52609E-05 1.45660E-06-7.73324E-06-8.80384E-06
 -1      1601 3.20221E-05 2.85814E-05-9.83028E-05-9.78683E-07-6.92653E-06-5.62416E-06
 -1      1602 2.97806E-05 2.98224E-05-9.56451E-05 8.04603E-07-5.97047E-06 1.67045E-06
 -1      1603 3.60449E-05 3.39045E-05-1.13772E-04-2.56478E-07-7.34466E-06-4.59374E-07
 -1      1604 4.86888E-05 4.54524E-05-1.55150E-04-8.16300E-07-1.15993E-05-7.45942E-06
 -1      1605 4.22854E-05 3.75780E-05-1.35206E-04 2.33739E-06-6.56556E-06-2.11977E-06
 -1      1606 5.41717E-05 5.23469E-05-1.72073E-04-1.09618E-06-8.66634E-06 8.91122E-07
 -1      1607 4.02766E-05 3.75509E-05-1.27608E-04-1.21045E-06-7.43525E-06 5.11966E-06
 -1      1608 1.74218E-05 1.60303E-05-5.36799E-05-1.03104E-06-5.67044E-06-8.91631E-06
 -1      1609 2.25637E-05 2.03888E-05-6.72269E-05 1.15035E-06-7.53425E-06-3.80485E-06
 -1      1610 1.33057E-05 1.06516E-05-3.83010E-05-2.40180E-08-4.73347E-06-6.71585E-06
 -1      1611 2.02760E-05 1.94012E-05-6.32690E-05 4.52891E-07-3.65673E-06 1.19035E-06
 -1      1612 2.55479E-05 2.46345E-05-8.23449E-05 1.55008E-07-5.76482E-06 7.11416E-07
 -1      1613 1.21913E-05 1.07919E-05-3.71061E-05 8.99148E-07-5.06198E-06-2.61722E-06
 -1      1614 1.53837E-05 1.35526E-05-4.69030E-05-7.18302E-07-3.96778E-06 1.54114E-06
 -1      1615 9.50482E-05 9.04180E-05-3.07773E-04-1.74332E-06-1.02742E-05 1.41465E-05
 -1      1616 5.90972E-05 5.98451E-05-1.97118E-04 5.01989E-07-1.14638E-05 3.52833E-06
 -1      1617 5.16198E-05 5.01278E-05-1.65273E-04 2.14425E-06-5.76999E-06 7.23684E-06
 -1      1618 4.62851E-05 4.53489E-05-1.42864E-04 1.86153E-06-9.57616E-06 1.09323E-05
 -1      1619 1.34547E-05-1.70804E-07-6.75899E-05 3.12885E-06-7.65268E-05-1.25887E-05
 -1      1620-2.51164E-06-3.84518E-05 4.61569E-05 1.03859E-04-1.04451E-04 2.65869E-05
 -1      1621-4.83633E-05-3.03317E-06 7.11068E-05 6.70422E-05 1.28345E-04 4.40329E-05
 -1      1622-4.14391E-06 3.52702E-05-6.19028E-04 1.32252E-04 3.63783E-04-2.12475E-05
 -1      1623 2.05737E-06 3.99180E-05-7.82769E-04-2.14856E-05 3.80899E-04 1.43681E-04
 -1      1624-1.46568E-07-5.33097E-08-1.96561E-04-4.57766E-07 2.48527E-04 4.85302E-06
 -1      1625-2.62544E-05-2.08325E-04 1.89753E-03 1.17905E-04 3.91302E-05 2.00975E-04
 -1      1626-6.04032E-06-1.59154E-06 7.73062E-04 3.98947E-06 1.44431E-04 2.63593E-04
 -1      1627-5.17246E-05 2.09231E-04-1.35985E-03-4.11630E-05 1.05072E-04-1.65974E-04
 -1      1628 1.31789E-05-2.83624E-04 2.08229E-03 8.39267E-05-1.45837E-04 7.05564E-05
 -1      1629 1.58988E-05-2.08774E-04 1.90396E-03-4.40806E-05-1.49606E-04 1.70142E-04
 -1      1630-1.32191E-05 4.31721E-05-1.70135E-03-2.69621E-06-3.39541E-04-9.37556E-05
 -1      1631 8.58256E-09 6.60010E-08 1.08835E-04 2.45911E-08-2.56878E-06 4.76878E-05
 -1      1632-7.39900E-08 1.83299E-06-1.53568E-03 4.05501E-07-1.13777E-04-1.39828E-04
 -1      1633-1.79763E-07-1.94410E-06 1.33505E-03-5.97307E-07-1.61839E-04-1.21176E-04
 -1      1634 1.54476E-05-1.59553E-04 2.04021E-03-3.44820E-05-3.12938E-04-8.49012E-05
 -1      1635 1.01789E-05 3.05438E-04-1.95737E-03-9.39991E-05-1.87089E-04 3.62316E-05
 -1      1636-6.48595E-05 1.93804E-06 2.19562E-04 1.74961E-05-2.36067E-04-1.48831E-05
 -1      1637-4.83420E-07 7.87469E-07-1.83806E-03-1.38315E-06-3.14932E-04-2.93297E-05
 -1      1638-2.42500E-07-2.90524E-07-6.70237E-04-1.21261E-07 1.12117E-04 3.73978E-05
 -1      1639-9.10047E-07-3.90327E-06 1.01798E-04-2.37028E-05-7.96322E-05-6.30329E-05
 -1      1640-1.88434E-05 2.03780E-04-1.45701E-03 2.29353E-05-3.69171E-05 5.56512E-05
 -1      1641-5.87965E-06 1.19038E-06 2.08889E-06-6.04085E-06-8.70694E-07-5.58488E-07
 -1      1642-5.25365E-06 2.09736E-06 4.89992E-07-2.22000E-06-1.29031E-06-7.37670E-08
 -1      1643-2.54400E-06 6.96105E-07 1.25265E-06 9.47933E-08-6.54158E-07-4.75295E-07
 -1      1644-4.00676E-07 4.48488E-07-1.99592E-07 6.19475E-09 1.49311E-07 7.12338E-08
 -1      1645-4.18514E-06 1.13336E-06 2.09714E-06-1.57734E-06 1.36680E-07-2.96280E-06
 -1      1646-2.07563E-06 1.34459E-06-1.31321E-07-4.49642E-06 3.88023E-07 1.36461E-06
 -1      1647-2.10407E-06 7.89965E-07 2.13342E-07-1.62073E-07-5.10935E-07-6.91092E-07
 -1      1648-4.61217E-06 1.17709E-06 2.30451E-06-3.22911E-07-3.72929E-07-4.33429E-08
 -1      1649-8.08669E-07 4.29674E-07 6.15291E-07 1.71665E-07-1.21151E-07 3.54478E-07
 -1      1650-5.90895E-06 1.91046E-06 1.05179E-06-1.91015E-06-8.22676E-07-1.22952E-07
 -1      1651-6.56859E-06 2.15939E-06 2.07004E-06-2.36111E-06-1.23732E-06 2.62779E-06
 -1      1652-4.09619E-06 1.20388E-06 1.94808E-06-1.48114E-06-4.30909E-07-1.38256E-07
 -1      1653-3.45768E-06 3.11267E-07 1.84746E-06-2.12767E-06-4.11539E-07-7.75915E-08
 -1      1654-1.51543E-06 5.69437E-07 8.70347E-07-3.42933E-07-7.29914E-07-4.96437E-07
 -1      1655-7.13637E-06 1.39038E-06 3.49091E-06-4.00341E-06 1.14672E-07 3.25959E-06
 -1      1656-3.19204E-06 1.39405E-06 4.44773E-07-4.02563E-06-9.98386E-07 3.70464E-06
 -1      1657-7.85034E-06 3.21790E-06 1.41504E-06-3.25697E-06-3.67659E-07 3.37412E-07
 -1      1658-6.60930E-06 2.53165E-06 1.48658E-06-4.84999E-06-1.08601E-06-2.40644E-06
 -1      1659-6.30310E-06 2.55927E-06 1.99906E-06-3.53707E-06-9.06228E-07-1.53906E-06
 -1      1660-7.00904E-06 3.26312E-06 7.92268E-07-4.21417E-06 3.20355E-07 4.10657E-07
 -1      1661-4.23344E-06 2.00711E-06 5.93651E-07-5.57307E-06 8.64258E-07-8.54817E-07
 -1      1662-8.45084E-06 2.93105E-06 2.07719E-06-4.90273E-06-2.98620E-07-4.50935E-06
 -1      1663 1.38379E-04 1.27228E-04-4.66455E-04-6.63024E-06 1.23857E-06-3.17900E-05
 -1      1664 1.66772E-05-5.49838E-07-6.33543E-05-2.72085E-06-9.80507E-06 4.09370E-05
 -1      1665 2.00110E-05 4.67357E-05-8.93213E-05-6.55874E-07-3.02221E-05 3.59432E-05
 -1      1666 1.25038E-04 1.39587E-04-4.42843E-04 7.42775E-06-8.52288E-06-2.86297E-05
 -1      1667 1.63487E-05 4.91385E-06-6.46310E-05 2.73540E-06-4.80014E-06 3.84855E-05
 -1      1668 2.74248E-05 4.29611E-05-9.92997E-05 6.33376E-07 3.81975E-06 3.80272E-05
 -1      1669 1.18108E-04 1.10304E-04-3.88502E-04-2.22370E-06-2.70024E-06-3.04366E-05
 -1      1670 5.35314E-06 3.22747E-06-1.47962E-05 2.40963E-07-3.79823E-06-5.99989E-06
 -1      1671 2.92975E-06 3.94155E-06-8.56580E-06-5.98086E-07-9.34227E-07 1.01932E-06
 -1      1672 1.27100E-06-2.16660E-06-3.42401E-06-1.51815E-06-5.62028E-06 1.08738E-05
 -1      1673 3.86745E-05 1.58937E-05-1.26417E-04-5.90888E-06-2.34175E-05 4.13161E-05
 -1      1674 4.59161E-05 7.02751E-05-1.66088E-04 1.04122E-06-2.47371E-05 4.32128E-05
 -1      1675 2.27000E-04 2.29700E-04-7.70310E-04-4.49633E-06 8.24873E-06-3.14695E-05
 -1      1676 1.49391E-05 1.51754E-05-6.56163E-05-9.36818E-06-2.69492E-05 3.19005E-05
 -1      1677 9.03921E-05 9.49970E-05-3.01739E-04 2.20911E-06 3.57151E-06-3.17245E-05
 -1      1678 2.17566E-05 3.01555E-05-8.28829E-05-1.48000E-06 9.31744E-07 2.96996E-05
 -1      1679 1.12386E-05 1.16742E-05-4.73700E-05-5.84145E-06-2.08855E-05 2.87012E-05
 -1      1680 6.67243E-05 6.59865E-05-2.18514E-04 2.35306E-06 2.31715E-06-2.64233E-05
 -1      1681 1.67973E-05 2.10083E-05-5.93299E-05-4.55412E-07-1.81846E-06 2.53763E-05
 -1      1682 2.24665E-06 6.27449E-06-1.81852E-05 3.21718E-07-1.55418E-06 9.60513E-06
 -1      1683 1.74776E-06 1.22584E-06-7.37379E-06 3.53390E-07-1.04826E-06 7.35018E-06
 -1      1684 5.91239E-05 6.11122E-05-1.92767E-04 9.05121E-06-1.94389E-05-2.75279E-05
 -1      1685-3.76092E-06 9.78664E-07-7.46404E-08-1.41826E-06-1.27731E-06-5.24948E-06
 -1      1686 1.10212E-04 1.17133E-04-3.69052E-04 3.47138E-06-1.95173E-05-3.40491E-05
 -1      1687 5.72524E-05 8.03974E-04-1.64912E-03-3.28219E-05-4.03498E-05 6.95173E-05
 -1      1688-2.26102E-05-1.40156E-05 5.13047E-05 2.09750E-06-4.00000E-05-2.80095E-05
 -1      1689-2.35983E-05-2.47172E-05 7.11239E-05 4.99008E-07-4.41264E-05-2.82004E-05
 -1      1690-4.71821E-06-1.21965E-05 2.53995E-05 2.43271E-06-4.09172E-05-3.33267E-05
 -1      1691 2.07904E-04 2.29778E-04-7.45058E-04 8.61939E-06-1.59203E-05-3.92197E-05
 -1      1692 8.40937E-05 8.30703E-05-2.69334E-04 4.14211E-06-1.79726E-05-3.46039E-05
 -1      1693-2.23589E-05-3.53264E-05 9.47360E-05 3.23867E-06-4.26612E-05-2.60478E-05
 -1      1694-2.85980E-05-2.95759E-05 9.43301E-05 7.69049E-07-3.60712E-05-2.04642E-05
 -1      1695-1.95450E-05-1.63431E-05 5.39768E-05 5.60793E-07-3.85060E-05-2.63273E-05
 -1      1696 4.22939E-05 7.28802E-04-1.91458E-03 8.62457E-05-1.65344E-04-1.07643E-04
 -1      1697 7.02787E-05 8.40568E-04-1.98770E-03 8.84190E-05-9.51135E-05-4.93458E-05
 -1      1698-1.58811E-04-8.33120E-04 2.09033E-03 1.65672E-04-1.35095E-04 1.16242E-04
 -1      1699-5.10172E-05-3.22100E-05 1.05030E-04 1.44462E-04-1.81578E-04 5.67104E-05
 -1      1700-3.91003E-05-8.10927E-05 1.78007E-04 1.25987E-04-1.48613E-04-3.95416E-05
 -1      1701-2.97268E-06-4.00814E-07 3.77187E-06 1.74401E-07-2.86235E-06-2.77457E-06
 -1      1702-3.40651E-06-8.06788E-07 4.35291E-06 5.72239E-08-3.43566E-06-3.17242E-06
 -1      1703-6.03125E-06 1.98754E-07 5.35295E-06-6.64890E-07-2.69669E-06-7.82842E-07
 -1      1704-2.94768E-06 1.50565E-06-1.08560E-06-8.19624E-07-1.33345E-06-3.04237E-06
 -1      1705-1.83624E-06 2.05934E-06-2.38049E-06-6.94697E-07-1.18717E-06-2.12163E-06
 -1      1706 9.44333E-06-6.10817E-07-1.68285E-05-1.41730E-06-3.66027E-05-3.90549E-05
 -1      1707 8.64538E-05 8.72970E-05-3.10251E-04 4.44837E-06-3.71486E-05-3.54214E-05
 -1      1708-5.47764E-06-9.89382E-06 2.69768E-05-8.43745E-06-4.49543E-05-1.57972E-05
 -1      1709 7.41535E-05 7.25745E-05-2.64840E-04-2.75765E-05-3.70755E-05-3.11529E-05
 -1      1710-1.00467E-05-9.31113E-06 3.18178E-05-1.55635E-07-2.01689E-05-1.19457E-05
 -1      1711-9.22000E-06-1.23095E-05 3.42719E-05 1.47731E-06-2.23977E-05-1.43998E-05
 -1      1712-8.79976E-06-5.26000E-06 1.72428E-05-3.43472E-07-2.21626E-05-1.52504E-05
 -1      1713-1.00492E-05-1.09368E-06 1.28315E-05 2.71317E-07-1.97923E-05-7.11054E-06
 -1      1714-8.62985E-06-4.53002E-06 1.76506E-05-3.21493E-07-1.82638E-05-9.41875E-06
 -1      1715-1.13609E-05-1.14475E-05 3.46844E-05-1.54091E-06-1.50120E-05-4.90446E-06
 -1      1716-4.92039E-06-3.30337E-06 1.18281E-05-9.58276E-07-1.76915E-05-7.57161E-06
 -1      1717-1.23878E-05-8.20808E-06 3.18004E-05-8.14509E-07-1.49812E-05-5.34989E-06
 -1      1718-3.79967E-05-3.83266E-05 1.23860E-04 9.43315E-07-3.76447E-05-3.82831E-06
 -1      1719-2.75437E-05-1.83866E-05 6.68471E-05-7.16819E-07-3.99272E-05-6.92034E-06
 -1      1720 2.67672E-05 2.56912E-05-8.50764E-05 1.43589E-08-1.15886E-06-1.66118E-05
 -1      1721 7.47122E-06 1.20779E-05-3.00251E-05-2.36080E-06-8.66450E-06 1.14655E-05
 -1      1722 5.72384E-07-2.75985E-06-5.23779E-06-5.21315E-06-8.47320E-06 2.34656E-05
 -1      1723-7.01147E-05-8.44051E-04 1.74482E-03-7.90530E-05-4.11792E-05-8.56944E-05
 -1      1724-1.84437E-05-1.75501E-05 5.78682E-05-1.78705E-06-3.00258E-05-1.99306E-05
 -1      1725-1.65145E-05-2.08741E-05 6.48732E-05 1.05415E-06-2.78865E-05-3.53258E-06
 -1      1726-1.38294E-05-1.19291E-05 3.86766E-05-1.34958E-06-2.95661E-05-6.62728E-06
 -1      1727-1.67481E-05-8.28596E-06 3.30472E-05 9.73667E-07-3.01783E-05-2.28541E-05
 -1      1728-5.61132E-06-7.41863E-06 1.85356E-05 3.04007E-07-1.70924E-05-1.33421E-05
 -1      1729-8.63312E-06-7.35636E-06 2.69413E-05-9.57048E-07-1.69313E-05-5.62898E-06
 -1      1730-5.95514E-06 1.69578E-07 6.77565E-06 8.95256E-07-1.86239E-05-6.69333E-06
 -1      1731-2.54303E-06 3.09285E-07 5.36196E-07-3.65990E-08-1.66417E-05-1.41467E-05
 -1      1732-2.15139E-05-1.87797E-05 6.08961E-05 1.18403E-06-4.69030E-05-3.08841E-05
 -1      1733-4.34200E-05-3.44934E-05 1.23566E-04 8.36227E-07-4.98062E-05-2.86988E-05
 -1      1734-6.00711E-05-7.02017E-05 2.14719E-04-1.03068E-06-5.04305E-05-1.14103E-05
 -1      1735-4.34444E-05-5.33880E-05 1.74789E-04 5.36397E-06-4.65031E-05-1.19542E-05
 -1      1736-1.83777E-04-1.02680E-03 2.26992E-03 1.11112E-04-1.66483E-04 5.52197E-05
 -1      1737-5.45475E-06 1.66397E-06 6.34857E-06 8.52594E-07-1.45718E-05-1.06643E-06
 -1      1738-5.82005E-06 2.93362E-06 2.76539E-06-3.06225E-07-1.40392E-05-4.39271E-07
 -1      1739-7.31484E-06-4.55892E-06 1.75381E-05-1.02288E-06-1.63838E-05-1.11821E-06
 -1      1740-2.30841E-05-1.80252E-05 6.45682E-05-4.05857E-08-3.52605E-05-2.10671E-05
 -1      1741-2.50159E-05-1.08112E-05 5.08824E-05 5.77919E-07-3.75644E-05-1.58443E-05
 -1      1742-3.28298E-05-6.29079E-05 1.48126E-04 3.48144E-05-1.44381E-04-5.36881E-05
 -1      1743-2.60138E-05-1.13286E-04 2.68249E-04-9.22161E-06-1.24756E-04-1.54438E-05
 -1      1744-7.79246E-05-7.67333E-05 2.51541E-04 2.73336E-05-1.14723E-04 2.59245E-05
 -1      1745-7.42253E-05-2.98491E-05 1.53742E-04 4.87415E-05-1.16920E-04-2.09065E-05
 -1      1746-2.88152E-05-3.14254E-05 9.35879E-05-6.82342E-07-4.47519E-05-1.65831E-05
 -1      1747-3.67568E-05-3.92513E-05 1.33300E-04 1.83091E-06-4.15047E-05-1.44303E-05
 -1      1748 3.98306E-06 1.96491E-05-3.05016E-05-2.81661E-06-2.73720E-05-2.36591E-05
 -1      1749-2.09689E-05-1.55994E-05 6.58130E-05-3.12300E-06-2.80176E-05-1.71464E-05
 -1      1750 8.91034E-06 1.28763E-05-4.10540E-05 6.76950E-07-2.72663E-05-2.55406E-05
 -1      1751-1.24336E-05-1.01966E-04 2.19294E-04 3.11854E-05-9.22343E-05-3.16420E-05
 -1      1752-2.74502E-05-3.01328E-06 3.50206E-05 3.10982E-05-6.54443E-05-1.12156E-05
 -1      1753 2.52421E-05 6.00772E-06-8.61193E-05 4.73816E-05-6.12786E-05-1.03328E-05
 -1      1754-3.83706E-07 1.76242E-07-1.72226E-07-1.73186E-08-2.55800E-07-3.01435E-08
 -1      1755-5.65478E-06-4.62852E-06 1.06805E-05-2.69544E-07-3.27960E-05-2.56647E-05
 -1      1756-2.11277E-05-1.68367E-05 6.83033E-05-3.59475E-06-3.17573E-05-2.18915E-05
 -1      1757-2.09241E-05-6.64143E-06 4.28851E-05 7.22510E-06-3.83238E-05-2.57785E-05
 -1      1758-3.99155E-05-3.76699E-05 1.19214E-04-1.85316E-07-4.90814E-05-2.58652E-06
 -1      1759 4.49395E-05 4.22757E-05-1.46216E-04 1.85749E-06-2.16961E-05-2.22052E-05
 -1      1760 5.10285E-05 6.19399E-05-1.96625E-04-1.38232E-05-3.45779E-05-3.08950E-05
 -1      1761-1.03652E-05-6.31675E-06 2.46283E-05-1.33095E-06-2.65793E-05-1.42147E-05
 -1      1762 2.51673E-05 2.23041E-05-7.90702E-05 9.06395E-07-1.74186E-05-1.70417E-05
 -1      1763-1.24626E-05-1.08584E-05 4.09749E-05-2.01848E-06-2.39462E-05-1.59883E-05
 -1      1764-1.18092E-05-1.77564E-06 2.08625E-05 3.97550E-06-2.82496E-05-1.89618E-05
 -1      1765 3.16713E-05 3.74037E-05-1.17593E-04-8.41653E-06-2.55230E-05-2.21336E-05
 -1      1766-5.88635E-05-6.12082E-05 2.00923E-04-2.19669E-06-3.66011E-05-1.09739E-05
 -1      1767-5.00261E-05-4.43262E-05 1.54606E-04-9.16556E-07-4.14263E-05-1.53047E-05
 -1      1768 5.70833E-05 2.17295E-05-1.42947E-04-4.74123E-07-4.16232E-05-3.35432E-05
 -1      1769 6.44900E-05 4.90217E-05-2.02899E-04 7.31061E-07-3.70889E-05-3.39502E-05
 -1      1770-1.22682E-05-1.08808E-05 3.69768E-05-3.05845E-06-3.75179E-05-2.57270E-05
 -1      1771 6.05814E-05 7.17509E-05-2.24480E-04 3.22087E-06-2.78967E-05-2.07247E-05
 -1      1772-2.45919E-05-2.33261E-05 9.28118E-05-7.36723E-06-4.45158E-05-2.70748E-05
 -1      1773 3.59845E-05 4.04294E-05-1.25158E-04 1.36986E-06-2.57607E-05-1.50817E-05
 -1      1774-4.51941E-06 7.41186E-07 2.69786E-06-2.67875E-06-1.88917E-06 7.16066E-06
 -1      1775-3.58384E-05-4.83194E-05 1.36713E-04-2.87400E-06-4.66811E-05-3.10375E-05
 -1      1776-4.74008E-05-5.38771E-05 2.07498E-04-1.22301E-05-2.07413E-04 2.21348E-05
 -1      1777-1.37585E-05-1.36936E-05 4.59430E-05 3.72391E-07-2.07885E-05-2.24838E-06
 -1      1778-9.04452E-06-4.10188E-06 1.70821E-05-1.04136E-06-2.12874E-05-2.21449E-06
 -1      1779 1.23242E-05 1.50438E-05-5.01786E-05-1.22681E-06-1.66836E-05-1.32468E-05
 -1      1780-4.76120E-06-1.08036E-06 1.16681E-05-6.43980E-07-1.60452E-05-1.40546E-05
 -1      1781 1.54009E-05 1.52891E-05-4.77704E-05-2.62087E-06-1.72370E-05-1.21659E-05
 -1      1782-1.20115E-06 1.50748E-06-2.31559E-06-6.34686E-08-5.65587E-06-4.69184E-06
 -1      1783-2.27860E-06 9.58433E-07 9.32692E-07 1.25887E-07-5.63602E-06-3.47856E-06
 -1      1784-1.89307E-06 2.96114E-06-7.91998E-07-2.46806E-07-6.20443E-06-3.20914E-06
 -1      1785-1.93273E-06 2.34854E-06-8.27995E-07-1.48867E-06-6.76035E-06-4.84285E-06
 -1      1786-3.55989E-06-4.43627E-06 1.06883E-05 5.07823E-08-7.69163E-06-4.46466E-06
 -1      1787-4.65758E-06-3.00369E-06 1.06370E-05 1.76392E-07-8.34414E-06-5.01694E-06
 -1      1788-5.64256E-06-6.92638E-06 1.71875E-05-2.66014E-06-3.38066E-05-3.37791E-05
 -1      1789 2.03373E-06 1.46553E-05-3.34876E-05-1.59517E-06-4.34046E-05-3.90352E-05
 -1      1790-2.82446E-05-2.15398E-05 8.08844E-05 6.19825E-06-4.18855E-05-1.49665E-05
 -1      1791-3.28566E-05-3.76551E-05 1.24932E-04 1.27539E-06-4.18025E-05-8.88381E-06
 -1      1792-2.61669E-05-2.34398E-05 7.84445E-05-1.01622E-06-3.06056E-05-4.68381E-06
 -1      1793-4.35855E-06 7.50284E-06 1.41982E-06-7.29111E-06-3.36784E-05-2.21848E-05
 -1      1794-2.85202E-06 2.72196E-06 4.83352E-06-4.88939E-06-2.41972E-05-1.65763E-05
 -1      1795 2.19905E-05 2.32180E-05-7.54153E-05 1.57698E-07-2.14862E-05-1.65203E-05
 -1      1796-1.86779E-06 3.28723E-06-1.46063E-06-1.97730E-06-2.02130E-05 4.74136E-06
 -1      1797 2.39880E-06 7.44671E-06-1.49776E-05-1.76019E-06-1.30625E-05 2.70727E-06
 -1      1798-1.98643E-05-2.35956E-05 6.34034E-05-3.26252E-06-3.40805E-05-1.47128E-05
 -1      1799-2.30533E-05-2.16427E-05 6.98292E-05 3.96388E-07-3.73506E-05 1.23297E-06
 -1      1800-2.76194E-05-2.93090E-05 8.44161E-05-5.22369E-06-3.86788E-05 2.33593E-06
 -1      1801-3.09819E-05-3.14818E-05 1.03569E-04 1.49792E-08-3.33725E-05-1.33098E-05
 -1      1802 1.65544E-05 1.97184E-05-6.30226E-05 1.58800E-06-3.57657E-05-3.32911E-05
 -1      1803-1.17918E-05-9.76745E-06 3.48379E-05 3.53940E-07-1.90833E-05-6.87253E-06
 -1      1804-1.30698E-05-1.23994E-05 3.90629E-05 1.14756E-06-1.90418E-05-8.37504E-06
 -1      1805-1.01374E-05 5.69243E-05-1.03033E-04 7.10718E-05-7.63888E-05-3.47922E-06
 -1      1806-3.26509E-06-1.78353E-06 3.17895E-06-1.63957E-07-2.47374E-05-2.02880E-05
 -1      1807-3.31695E-05-4.77035E-05 1.43181E-04 4.39088E-06-4.49751E-05-3.12479E-06
 -1      1808 1.13863E-05-1.82046E-06-1.31589E-05 7.66145E-07-3.85944E-05-3.16466E-05
 -1      1809-1.32296E-05-1.69949E-05 4.82678E-05 3.55111E-06-3.55588E-05-2.24293E-05
 -1      1810-1.01540E-05-1.23291E-04 2.76608E-04 5.70065E-05-1.76426E-04-4.33713E-05
 -1      1811 4.01424E-06 7.54395E-06-2.15220E-05 1.22619E-06-1.81390E-05-1.82707E-05
 -1      1812 3.37760E-06 1.15498E-05-1.94909E-05-1.53228E-06-1.89461E-05-1.60055E-05
 -1      1813-1.12817E-05-8.76684E-06 3.49489E-05-2.06233E-06-1.95884E-05-1.15225E-05
 -1      1814 1.30571E-04 8.53236E-05-3.89191E-04 2.13125E-05-3.97416E-05-2.88678E-05
 -1      1815 1.01115E-04 1.10867E-04-3.50931E-04 3.22498E-05-1.21981E-05-4.73906E-05
 -1      1816 1.14587E-04 1.34619E-04-4.61198E-04 1.02689E-05-6.24537E-05-5.82314E-05
 -1      1817 3.45149E-05 3.23331E-05-1.19725E-04 1.33210E-06-2.38709E-05-2.53074E-05
 -1      1818-5.10959E-06-7.89125E-06 1.99772E-05-1.12181E-06-2.98388E-05-2.19918E-05
 -1      1819-4.94711E-06-8.27129E-06 1.80793E-05-2.04145E-06-2.75892E-05-2.88903E-05
 -1      1820 3.17345E-05 1.92442E-05-7.08291E-05-3.03654E-05-2.93155E-05-2.60817E-05
 -1      1821 1.07267E-04 1.07613E-04-3.63249E-04-2.22299E-05-5.51386E-05-4.29804E-05
 -1      1822 1.69838E-04 1.47029E-04-4.92416E-04 5.77600E-06-5.76521E-05-2.58378E-05
 -1      1823-2.61979E-06 1.65728E-06-9.33292E-07-2.00136E-07-1.00806E-06-1.41598E-06
 -1      1824-3.96874E-05-4.56354E-04 1.50481E-04-6.67973E-05-1.35261E-04-1.38898E-05
 -1      1825-4.25954E-05-5.18384E-05 1.78314E-04-4.09950E-05-1.68652E-04-4.22720E-05
 -1      1826 9.52097E-05 7.48285E-04-1.88541E-03-4.86111E-05-1.14474E-04 5.60281E-05
 -1      1827-9.81193E-05-8.16426E-04 2.03263E-03-6.68512E-05-1.37715E-04-3.54953E-05
 -1      1828 1.72696E-05 1.86256E-05-6.49042E-05 8.19176E-07-1.77256E-05-1.77779E-05
 -1      1829-1.30703E-06-3.19234E-06 6.62388E-06-1.45919E-06-2.10049E-05-1.51792E-05
 -1      1830-4.27105E-06-6.00209E-06 1.43911E-05-1.09119E-06-2.03299E-05-2.02814E-05
 -1      1831 2.12967E-06-2.01830E-06-1.25189E-07-2.49487E-07-1.89983E-05-1.65509E-05
 -1      1832-2.16945E-06-1.98123E-06 8.19708E-06-1.50001E-06-1.50854E-05-1.33349E-05
 -1      1833-3.80941E-06 2.97868E-06 6.12847E-07-7.19485E-07-1.53471E-05 6.71405E-06
 -1      1834-1.40694E-05-4.37599E-05 6.21314E-05 2.78587E-05-5.15555E-05-3.18698E-05
 -1      1835 3.31165E-05 5.34215E-05-1.31457E-04 3.77241E-07-2.62338E-05 3.57222E-05
 -1      1836 1.64007E-04 1.85528E-04-5.86870E-04 1.22761E-05-1.64545E-05-4.43642E-05
 -1      1837 1.82649E-04 1.95468E-04-6.30215E-04-3.72146E-06 5.17151E-06-4.29948E-05
 -1      1838 3.17680E-05 3.67112E-05-1.13702E-04-8.15161E-06-2.91897E-05-2.83506E-05
 -1      1839-7.79006E-06-1.54617E-06 2.02400E-05-6.36300E-06-3.07365E-05-1.84434E-05
 -1      1840-5.77187E-06-5.79422E-06 2.09778E-05-2.33490E-07-1.37085E-05-5.22266E-06
 -1      1841-5.41851E-06-4.28316E-06 1.40528E-05-8.18512E-07-1.29045E-05-1.20477E-05
 -1      1842-1.42006E-06 3.11541E-06-4.38277E-06-2.63946E-07-1.63515E-05-1.33285E-05
 -1      1843-2.96158E-06-3.05962E-07 4.11426E-06 2.40867E-06-1.56160E-05-6.29933E-06
 -1      1844-1.32167E-06-1.06279E-05 8.02848E-05 3.27773E-05-1.45870E-05-2.55829E-05
 -1      1845-1.11563E-05-5.58282E-05 1.69655E-04 3.98920E-05-1.58232E-05-3.21623E-06
 -1      1846 1.54440E-04 7.49736E-05-3.70929E-04 5.06083E-06-1.39967E-05 2.16675E-05
 -1      1847 1.05401E-04 1.40239E-04-4.99028E-04 3.29724E-05-3.77436E-05-1.25602E-04
 -1      1848 1.80868E-05 2.11583E-05-6.41730E-05-4.24380E-06-2.04486E-05-1.84145E-05
 -1      1849-4.96432E-06-1.82265E-06 1.34514E-05-3.30078E-06-2.21201E-05-1.36332E-05
 -1      1850 1.00945E-05 1.13989E-05-3.59681E-05-2.12513E-07-1.61695E-05-1.31934E-05
 -1      1851-1.32810E-05-2.66570E-05 6.00970E-05 2.61370E-05-5.89918E-05-4.30308E-05
 -1      1852-5.73019E-06 1.64333E-06 5.43173E-06-1.96663E-07-1.40776E-05-7.82233E-06
 -1      1853-3.13090E-05-5.85265E-05 1.44282E-04 3.02957E-06-5.51944E-05-2.62272E-05
 -1      1854-4.26365E-05-3.66535E-05 1.33319E-04 9.77033E-06-6.38516E-05-2.60272E-05
 -1      1855-2.52073E-05-8.80244E-06 5.70956E-05 5.24389E-06-5.52495E-05-3.34969E-05
 -1      1856-1.97455E-05-1.68563E-05 5.21668E-05 8.18002E-06-4.46910E-05-3.26194E-05
 -1      1857-3.53966E-05-2.28211E-05 9.08060E-05-6.31145E-07-3.91176E-05-2.11535E-05
 -1      1858-1.72145E-05-1.05281E-05 4.10998E-05 4.72364E-07-2.62699E-05-1.71235E-05
 -1      1859-2.65538E-05-2.24887E-05 7.58036E-05-1.61726E-06-5.87264E-05-2.85424E-05
 -1      1860-2.22255E-06 3.00419E-05-3.69088E-05 3.06480E-06-3.97973E-05-2.26104E-05
 -1      1861-3.76766E-05-4.75445E-05 1.51701E-04 3.77909E-06-4.54845E-05-1.61777E-05
 -1      1862-5.27492E-05-5.06488E-05 1.64360E-04-1.32426E-06-4.73682E-05-1.96660E-05
 -1      1863 3.21491E-06 6.39770E-06-1.94212E-05-1.33141E-06-2.37536E-05-2.28909E-05
 -1      1864-8.97112E-06-1.09281E-05 3.09132E-05 2.46648E-06-2.62910E-05-1.72905E-05
 -1      1865-1.81286E-06 1.17720E-05-9.24047E-06-1.45216E-06-2.39980E-05-1.85689E-05
 -1      1866 1.44262E-04 1.16804E-04-4.37720E-04 3.66139E-06-3.75993E-05-4.30526E-05
 -1      1867 1.06634E-04 9.91534E-05-3.44514E-04-6.76064E-07-4.14490E-05-1.45755E-05
 -1      1868 8.18035E-05 3.30611E-04-1.18530E-05 1.44444E-04-8.52533E-05-1.17597E-05
 -1      1869 1.52246E-05 1.95725E-05-4.85207E-05 5.14792E-07-1.25043E-05-1.47885E-05
 -1      1870 1.23491E-05 1.88048E-05-4.96901E-05-2.32893E-06-1.33400E-05-7.65590E-06
 -1      1871 2.32556E-06-1.22088E-04 1.90089E-04 9.50200E-05-1.00974E-04-2.21964E-05
 -1      1872-3.93857E-05 1.05059E-04-1.27489E-04 1.17909E-04-7.86029E-05-1.95126E-05
 -1      1873 5.49800E-06 9.05427E-06-2.91646E-05-2.39032E-06-3.24447E-05-3.13824E-05
 -1      1874-5.65177E-06 1.76738E-05-8.15823E-06-2.10553E-06-3.32977E-05-2.65066E-05
 -1      1875-4.14261E-06-4.92534E-07 4.03953E-06-2.39187E-07-2.64163E-06-3.55370E-07
 -1      1876-6.46773E-06 1.07859E-06 4.80388E-06-4.58403E-07-1.30044E-06 2.40881E-06
 -1      1877-9.89212E-05-1.02678E-05 1.80603E-04-2.08155E-05-1.27174E-04 1.71592E-05
 -1      1878 7.54731E-06 4.93518E-06-2.23173E-05-2.25937E-06-1.47879E-05-1.13944E-05
 -1      1879-5.41059E-06-8.19666E-06 2.19400E-05 6.44062E-07-1.52811E-05-1.20491E-05
 -1      1880-4.01404E-05-4.20454E-05 1.32496E-04-1.54231E-06-4.00180E-05-1.94484E-05
 -1      1881-4.36963E-05-4.85827E-05 1.39860E-04 5.01546E-06-5.32373E-05-1.67374E-05
 -1      1882-2.27586E-06-7.23001E-07 3.85672E-06 6.69016E-07-8.57142E-06-5.46129E-06
 -1      1883 1.39291E-06 6.23885E-07-5.03927E-07-9.10380E-07-8.35942E-06-6.43986E-06
 -1      1884-1.12429E-06-8.09529E-07 1.76328E-06-4.79934E-07-7.50909E-06-8.06890E-06
 -1      1885 1.64902E-06 4.15133E-06-9.68566E-06-5.02927E-07-7.75089E-06-6.83875E-06
 -1      1886-1.66235E-05-2.44568E-05 7.35181E-05 3.16345E-06-4.33355E-05 2.45787E-06
 -1      1887-5.19078E-05-5.42260E-05 1.67577E-04-2.33179E-06-4.44523E-05 6.90400E-06
 -1      1888-5.75966E-05-4.54732E-05 1.61073E-04-3.36052E-06-5.66183E-05-6.17575E-06
 -1      1889-7.68150E-05-1.00308E-04 3.01204E-04-4.06553E-06-5.76307E-05-7.78353E-07
 -1      1890-1.79679E-05-2.94299E-05 7.71496E-05-7.18071E-07-5.42974E-05 9.31141E-06
 -1      1891 6.11535E-06 2.93110E-05-7.01642E-05-6.47846E-07-5.89951E-05 6.25287E-06
 -1      1892 2.46770E-05 2.23024E-05-7.87937E-05 5.77564E-07-3.79299E-05-3.77291E-05
 -1      1893-1.95994E-05-7.48903E-06 3.73250E-05-3.28101E-06-5.39075E-05-2.39802E-05
 -1      1894-2.76166E-05 1.40601E-05 2.50069E-05 1.59242E-05-6.04195E-05-3.37076E-05
 -1      1895-3.31645E-05-2.31105E-05 1.00308E-04 1.08902E-05-7.65442E-05-9.14059E-06
 -1      1896 3.72145E-05 2.38316E-05-1.27057E-04-5.33082E-06-2.94166E-05 3.82983E-05
 -1      1897-1.41227E-05-1.15964E-05 3.99718E-05 2.39581E-07-2.82153E-05 8.08997E-07
 -1      1898-1.02619E-05-1.14563E-05 3.03445E-05-2.28850E-06-2.51098E-05-1.19050E-05
 -1      1899-1.91568E-05-1.89766E-05 6.22129E-05-2.29846E-07-2.48066E-05-1.01536E-05
 -1      1900-1.88650E-05-1.84730E-05 5.40135E-05-4.30520E-06-2.81419E-05 1.53923E-06
 -1      1901-1.31648E-05-1.46345E-05 4.81899E-05 6.14263E-07-2.17592E-05-5.59962E-06
 -1      1902-1.72856E-05-1.83500E-05 5.39731E-05-1.90727E-06-2.34792E-05-9.89239E-06
 -1      1903 7.45479E-05 7.79053E-05-2.34490E-04-1.77030E-05-7.14678E-06-2.78629E-06
 -1      1904 7.65624E-05 1.08710E-04-3.13378E-04 1.94822E-05 8.12542E-06-5.64987E-05
 -1      1905 1.33160E-04 1.22127E-04-4.64375E-04 4.38291E-06-4.43632E-05-6.27306E-05
 -1      1906 1.14504E-04 8.43316E-05-3.25175E-04 1.02456E-05-1.76483E-05-3.86071E-06
 -1      1907 7.10468E-06 1.46447E-05-3.30717E-05 1.55813E-05-4.24705E-05-4.21600E-05
 -1      1908-5.13913E-06-1.25045E-05 5.66777E-05 1.37589E-05-4.28645E-05-2.30760E-05
 -1      1909 6.33330E-06-3.63224E-06-5.44872E-06 8.95952E-07-2.90879E-05-2.44363E-05
 -1      1910-5.77463E-05-1.57770E-04 3.92550E-04-5.60652E-05-1.25014E-04 3.15359E-05
 -1      1911-1.94345E-06 2.14528E-05-2.22342E-05-2.52906E-06-3.68633E-05-3.12965E-05
 -1      1912 6.18306E-06 4.05237E-04 6.77571E-05-2.34927E-04-3.56574E-04-5.27679E-05
 -1      1913-9.96544E-06-2.73577E-06 1.93176E-05 2.07555E-06-2.48170E-05-8.58964E-06
 -1      1914-3.85468E-06-1.34721E-06 8.22051E-06-1.56312E-07-1.21736E-05-1.80767E-06
 -1      1915-9.47796E-06-3.75709E-06 1.56076E-05-1.40491E-06-8.45822E-06-1.47896E-06
 -1      1916 8.26636E-06 2.32590E-06-1.33217E-05-9.23019E-07-1.41565E-05-1.19714E-05
 -1      1917-3.51568E-06-4.63180E-06 1.59483E-05-1.79836E-06-1.19497E-05-9.80150E-06
 -1      1918 4.08759E-06 5.54558E-06-2.24069E-05 1.43743E-06-1.48450E-05-1.13541E-05
 -1      1919-4.61761E-05-5.88902E-05 1.72347E-04-1.76808E-08-4.16134E-05-7.32200E-06
 -1      1920-1.89075E-05 6.15744E-07 2.56693E-05 4.19876E-06-3.86648E-05 1.90382E-06
 -1      1921-2.86146E-05-1.58830E-05 7.49704E-05-1.09775E-06-3.23157E-05 6.19371E-07
 -1      1922-1.81300E-05-9.54828E-06 4.32706E-05 3.35917E-06-3.42922E-05-1.14711E-05
 -1      1923-2.20425E-05-2.62330E-05 8.43368E-05 9.52738E-07-3.09908E-05-7.41862E-06
 -1      1924 2.13818E-04 1.75839E-04-5.90153E-04-1.46031E-05-6.28812E-05-5.30829E-05
 -1      1925-6.90454E-06-3.96890E-06 1.92508E-05-7.53041E-07-1.73891E-05 1.64073E-07
 -1      1926-4.97225E-06 4.38457E-06-3.18233E-06 8.89974E-07-2.01080E-05 1.21796E-06
 -1      1927-7.11183E-07 4.70419E-08 1.86806E-07-9.10525E-08-1.39251E-06-1.88091E-06
 -1      1928-4.30003E-05-3.46642E-05 1.30587E-04-3.45002E-07-5.03508E-05-1.54388E-05
 -1      1929-2.17991E-05 9.74299E-07 2.86112E-05 1.83690E-06-5.80651E-05-1.09568E-06
 -1      1930-2.97839E-05-3.88297E-05 1.16459E-04 1.24993E-06-5.22915E-05 2.47859E-06
 -1      1931-3.75446E-05-2.16854E-05 9.57735E-05 3.73216E-06-4.99902E-05-1.79590E-05
 -1      1932-7.32457E-05-6.68780E-05 3.21089E-04-2.63260E-05-1.68295E-04 3.81112E-05
 -1      1933-3.85322E-06-1.07758E-04 1.86980E-04-2.77589E-05-7.02449E-05-1.73838E-05
 -1      1934-4.35609E-06-2.19740E-05 2.73760E-05-1.66375E-05-1.02699E-04-3.47695E-05
 -1      1935-9.34967E-05-4.41184E-05 1.96598E-04 1.91975E-06-1.03112E-04 4.25847E-06
 -1      1936-9.31413E-05-1.14501E-04 3.59994E-04 3.84805E-06-9.60827E-05 2.78040E-05
 -1      1937-3.29127E-05-3.94305E-05 1.14744E-04-5.04049E-07-3.96452E-05-2.11994E-05
 -1      1938 5.63878E-07 1.57685E-06-4.57109E-06-8.02019E-07-1.31939E-05-8.41384E-06
 -1      1939-8.29016E-06-4.90847E-06 1.72683E-05-7.09843E-07-1.09270E-05-8.70462E-06
 -1      1940-5.08324E-06-1.46171E-06 8.12023E-06-3.01016E-07-1.08147E-05-9.06015E-06
 -1      1941-7.10178E-06-1.01378E-05 2.46568E-05 3.65267E-07-1.25325E-05 1.36705E-06
 -1      1942-8.82589E-07 2.27422E-06-1.52898E-06-6.76289E-08-1.07894E-05-2.27552E-06
 -1      1943-8.58407E-06 2.66019E-06 7.62241E-06-1.20904E-06-1.19623E-05-1.93162E-06
 -1      1944-1.11303E-05-1.08175E-05 3.21762E-05-1.54226E-06-1.02872E-05 1.11561E-06
 -1      1945 7.00981E-07 2.81558E-06-4.73514E-06 1.79430E-07-1.34786E-05-1.07477E-05
 -1      1946 6.61236E-05 3.14633E-05-5.83286E-05 5.66547E-05 9.75620E-07-4.68102E-05
 -1      1947-3.92638E-05-4.74793E-05 1.34404E-04 2.50318E-06-3.86520E-05 1.82907E-06
 -1      1948-1.55845E-05-1.31619E-05 6.03747E-05-8.94252E-06-3.82595E-05-2.76055E-05
 -1      1949 4.32796E-05 5.03003E-05-1.56430E-04-1.56651E-05-4.09950E-05-4.29863E-05
 -1      1950 4.48612E-05 5.47260E-06-4.19181E-05 5.43492E-05-1.95760E-05-2.51342E-05
 -1      1951-2.69703E-05-4.68345E-05 1.24720E-04-3.05773E-07-6.14044E-05-2.09566E-06
 -1      1952-7.01472E-05-8.78355E-05 2.60797E-04 4.51502E-06-6.94941E-05-9.05149E-06
 -1      1953 9.63638E-06 9.85749E-06-2.87987E-05-1.87515E-07-1.60116E-05-9.14448E-06
 -1      1954 5.98992E-07 3.69411E-06-9.82854E-06 3.43112E-07-8.41490E-06-8.32793E-06
 -1      1955 6.20050E-05 8.50612E-05-2.31275E-04 2.16613E-06-2.88859E-05-4.30303E-05
 -1      1956-2.54131E-05-1.80194E-04 3.66919E-04-3.85986E-05-1.15039E-04 1.18955E-05
 -1      1957-7.78652E-05-1.29750E-04 3.76738E-04-5.54142E-06-1.22527E-04 5.09015E-05
 -1      1958-2.53593E-05-2.20042E-05 8.12638E-05 1.40561E-06-4.07230E-05 4.10340E-06
 -1      1959-1.81303E-05-1.18088E-05 4.50358E-05-2.03867E-06-3.91391E-05-3.10074E-07
 -1      1960 2.78197E-06-4.83548E-09-6.92379E-06-2.41502E-06-1.50854E-05 2.13968E-06
 -1      1961-4.52844E-06-7.58620E-06 1.36194E-05 3.16243E-06-1.18268E-05 7.46282E-06
 -1      1962 1.29376E-06 3.00222E-06-7.33363E-06-3.90492E-07-6.04744E-06-5.98931E-06
 -1      1963 1.13544E-04 1.16974E-04-3.99176E-04 4.90435E-06-5.07066E-05-5.56076E-05
 -1      1964 8.98922E-05 9.71951E-05-3.35853E-04-3.43783E-05-4.55647E-05-4.49923E-05
 -1      1965 1.95612E-05 1.18252E-05-4.41841E-05-1.16695E-05-4.40648E-05-2.05022E-05
 -1      1966 4.06888E-05 2.70559E-05-1.08291E-04-1.61162E-06-3.36003E-05-3.80118E-05
 -1      1967 8.66191E-07 3.04608E-06-6.69077E-06-8.04818E-07-1.92717E-05 8.92132E-06
 -1      1968-4.85223E-05-6.05859E-05 1.86122E-04 6.39356E-07-5.65740E-05-8.18335E-06
 -1      1969-3.89016E-05-3.69325E-05 1.13441E-04 7.06387E-06-6.32050E-05-1.15152E-05
 -1      1970-2.76375E-05-1.13333E-05 5.74258E-05-4.52649E-06-5.29719E-05 2.35289E-05
 -1      1971-2.13182E-06-1.69793E-06 5.71088E-06-5.60820E-07-5.25337E-06-5.29716E-06
 -1      1972-4.42724E-06-1.12946E-06 7.72603E-06-3.73853E-07-5.08299E-06-3.04355E-06
 -1      1973-1.37077E-06 1.87863E-06-1.70586E-06-5.30019E-07-6.13219E-06 3.90478E-07
 -1      1974-4.60628E-06 5.81941E-07 3.96205E-06-3.86591E-07-5.57068E-06-2.54508E-06
 -1      1975-2.46971E-06-5.19503E-07 3.38288E-06 4.53311E-08-4.73371E-06 3.61566E-07
 -1      1976-3.15820E-05-3.11669E-05 1.02144E-04 1.59585E-06-3.47402E-05-1.70266E-05
 -1      1977-2.35616E-05-6.88384E-05 1.92356E-04 2.64492E-05-8.86973E-05-4.47946E-05
 -1      1978-6.39271E-06-3.38091E-07 7.23877E-06-1.52128E-07-3.96212E-06 1.92195E-06
 -1      1979-2.67266E-05-2.91375E-05 8.89249E-05-2.25636E-06-3.10633E-05-1.40752E-05
 -1      1980-1.86102E-06 3.18470E-06-2.27076E-06-5.00140E-07-1.46637E-06 1.40487E-06
 -1      1981-2.09953E-06 1.04123E-06-7.98938E-07-2.07336E-06-3.01645E-06 3.74146E-06
 -1      1982-2.63786E-06 1.18440E-08 2.44002E-06 8.72821E-08-3.30330E-06 4.03332E-06
 -1      1983-2.54001E-06-1.05558E-05 1.22225E-05 3.08014E-06-1.10493E-05 4.72784E-05
 -1      1984 6.56670E-06 1.20289E-05-3.70016E-05-7.31203E-06-2.10104E-05 2.24902E-05
 -1      1985 1.46192E-05 1.89891E-05-6.07137E-05-1.60725E-06-1.87590E-05 1.48862E-05
 -1      1986-7.49177E-06-1.19980E-05 2.65118E-05 4.55273E-07-1.50234E-05 5.60739E-05
 -1      1987 2.34521E-05 2.80660E-05-8.79879E-05 1.31608E-06-2.49550E-05 1.69930E-05
 -1      1988 3.15314E-05 3.35415E-05-1.16122E-04 1.79791E-06-3.05748E-05 1.93137E-05
 -1      1989-1.04384E-05-1.72678E-05 3.79773E-05-4.41405E-07-2.27063E-05 6.49680E-05
 -1      1990-1.22897E-05-3.28105E-06 2.42634E-05 2.96743E-07-2.31642E-05-1.24915E-05
 -1      1991 8.99858E-05 7.53952E-05-2.62734E-04-1.06933E-07-2.60112E-05-1.90627E-05
 -1      1992-2.17248E-05-1.12505E-05 5.28631E-05 9.05069E-07-3.11831E-05-1.69533E-05
 -1      1993-6.37709E-05-4.03720E-05 1.51674E-04 7.51266E-06-7.09677E-05-1.81681E-05
 -1      1994-3.84732E-05-5.64006E-05 1.77494E-04 1.69411E-05-6.89398E-05-2.58039E-05
 -1      1995 3.22280E-06 5.62672E-06-1.50842E-05 5.26290E-07-9.48923E-06-8.93237E-06
 -1      1996-1.73215E-05-1.88043E-05 5.63010E-05-2.61303E-06-1.94632E-05-3.47187E-06
 -1      1997-2.13069E-05-9.24056E-06 4.49923E-05-1.07563E-07-2.11879E-05-1.43894E-06
 -1      1998-2.63911E-06-1.22001E-07 3.21226E-06 3.65085E-07-8.63082E-06-1.53373E-06
 -1      1999-3.08090E-05-2.75909E-05 9.17080E-05 1.12112E-06-4.35797E-05-2.28596E-05
 -1      2000 1.48548E-06 2.15223E-06-6.03042E-06-9.91220E-07-4.31477E-06-4.69619E-06
 -1      2001 3.09309E-06 3.24617E-06-1.00444E-05-6.78079E-07-5.73381E-06-4.86460E-06
 -1      2002-3.74108E-05-1.04306E-04 2.55441E-04 9.43600E-06-8.47065E-05-1.18618E-05
 -1      2003-7.03942E-05-8.63827E-05 2.57037E-04-3.18519E-06-5.17635E-05 1.24362E-05
 -1      2004-8.49212E-05-7.50702E-05 2.55504E-04 8.36914E-07-5.25340E-05 6.79170E-06
 -1      2005-1.57379E-05-1.15779E-05 3.82074E-05-1.80643E-06-1.82485E-05 2.97702E-06
 -1      2006-6.11112E-05-4.10286E-05 1.64057E-04 6.90876E-07-4.43593E-05-1.82734E-05
 -1      2007-7.15135E-06-5.91014E-06 1.89682E-05-3.90479E-07-1.09135E-05-1.89576E-06
 -1      2008 4.23803E-05 5.76271E-05-2.13552E-04-3.41625E-05-1.92149E-05-1.96280E-05
 -1      2009-4.86719E-05-7.89607E-05 2.03228E-04 2.58289E-06-6.43932E-05-1.58374E-05
 -1      2010-4.33822E-05-3.42830E-05 1.46546E-04 4.40074E-06-4.27277E-05-2.63275E-05
 -1      2011-3.57499E-05-3.85357E-05 1.07179E-04 1.24761E-06-4.82481E-05-3.48281E-05
 -1      2012 5.79482E-05 7.45348E-05-2.28478E-04 2.60555E-06-4.23487E-05-4.04228E-05
 -1      2013 2.16753E-05 1.90541E-05-6.83177E-05 1.89193E-06-4.95693E-06-1.76514E-05
 -1      2014 8.95561E-05 1.20457E-04-4.20069E-04 9.00646E-06-4.41052E-06-5.07727E-05
 -1      2015 1.51841E-04 7.76781E-04-1.86174E-03 1.38183E-04-6.76083E-05-1.92715E-04
 -1      2016 2.28755E-04 6.94179E-04-1.69596E-03 1.85557E-04 5.44182E-05-2.48887E-04
 -1      2017 1.60788E-04 1.63370E-04-5.60758E-04-5.86070E-07-4.06571E-05-2.97661E-05
 -1      2018 1.46958E-04 1.24105E-04-4.56395E-04-3.77319E-05-1.94464E-05-6.11689E-05
 -1      2019 1.58871E-04 1.37184E-04-4.96529E-04-1.75436E-05-4.31067E-05-1.61038E-05
 -1      2020-6.43733E-05-9.26519E-05 2.63421E-04-6.09793E-06-5.84460E-05 1.43696E-05
 -1      2021-2.25667E-05-1.23263E-05 4.89988E-05-5.39939E-07-3.38647E-05-1.48763E-05
 -1      2022-2.67803E-05-2.78414E-05 9.12103E-05 6.66200E-07-3.23138E-05-1.22207E-05
 -1      2023-2.84038E-05-3.72966E-05 1.27472E-04 5.94413E-06-5.46361E-05-3.03891E-05
 -1      2024-1.64239E-05-1.64402E-05 5.44695E-05 2.43434E-07-2.36677E-05-8.91497E-06
 -1      2025-2.96269E-05-2.69111E-05 8.79302E-05-3.24422E-06-4.89001E-05 2.11064E-05
 -1      2026 2.45523E-08-1.80302E-06 2.00105E-06-3.39105E-07-6.85489E-06-6.17175E-06
 -1      2027-9.53786E-06-1.02897E-05 2.82390E-05-1.81338E-06-1.32949E-05-5.67591E-06
 -1      2028-2.76780E-06 2.36367E-07 1.28181E-06-1.27565E-06-8.78901E-07 1.28807E-06
 -1      2029-2.46941E-05-2.86080E-05 8.15881E-05 6.67066E-07-2.85824E-05 6.22886E-07
 -1      2030-3.12080E-05-4.40636E-05 1.40682E-04 4.17729E-06-4.52755E-05-2.33450E-05
 -1      2031 3.25527E-05 5.31686E-05-1.44291E-04 7.55107E-06-4.25806E-05-3.15478E-05
 -1      2032-2.31521E-05-1.71595E-05 6.81332E-05-1.19328E-06-4.79014E-05 5.10661E-06
 -1      2033-6.98420E-06 1.80552E-06 8.07366E-06 1.65010E-06-2.60368E-05 1.65423E-06
 -1      2034-1.19518E-05-1.59975E-06 2.24053E-05 2.45612E-06-3.53653E-05 9.10221E-07
 -1      2035-4.80810E-05-3.72987E-05 1.36342E-04-1.87423E-06-4.96954E-05 8.52424E-06
 -1      2036-5.54557E-06-4.25906E-06 1.34742E-05-1.47056E-06-6.83322E-06-4.60267E-07
 -1      2037 6.32342E-05 3.63674E-05-1.71461E-04-1.33812E-06-3.48500E-05-3.12693E-05
 -1      2038-9.72189E-05-3.11480E-04 1.42730E-04 3.37915E-04 1.46107E-04 2.95014E-05
 -1      2039-1.63510E-04-6.46348E-04 1.58353E-03 2.39403E-04 5.75734E-05 2.79594E-04
 -1      2040 1.56237E-04 7.19812E-05-2.29502E-04 1.97320E-04 4.05555E-05 2.48170E-06
 -1      2041-8.25310E-05-5.18945E-05 2.16959E-04-8.18940E-06-7.99638E-05 2.38685E-05
 -1      2042-1.62138E-06 1.71426E-06-1.69865E-06-3.48823E-07-3.87906E-06-1.81231E-06
 -1      2043-1.23738E-05 2.39565E-06 1.27217E-05 2.97592E-06-2.80878E-05 1.62116E-06
 -1      2044-1.59471E-05-6.09311E-06 3.72449E-05-1.49502E-06-2.42303E-05-3.44426E-07
 -1      2045-3.04878E-05-3.40186E-05 1.02191E-04 8.11322E-07-3.21027E-05-4.00889E-06
 -1      2046-2.56367E-05-1.49172E-05 5.98229E-05-5.90918E-07-2.82511E-05 6.78193E-06
 -1      2047-1.45753E-05-1.20910E-05 4.26374E-05 9.98108E-08-2.39188E-05 1.59985E-06
 -1      2048-2.29903E-05-2.52635E-05 6.78211E-05-1.69069E-06-2.21706E-05 4.26388E-06
 -1      2049-1.16184E-05-1.56884E-05 4.12090E-05 8.34320E-07-2.50395E-05 4.32383E-06
 -1      2050-1.12999E-06 3.62922E-06-4.15650E-06-1.73676E-06-1.16122E-05 3.95563E-06
 -1      2051-2.06251E-05-2.38092E-05 6.82942E-05-1.92853E-07-2.97071E-05-1.60229E-05
 -1      2052 1.06861E-04 1.01305E-04-3.46564E-04-1.42578E-05-3.17552E-05-3.49392E-05
 -1      2053 1.69310E-04 1.62130E-04-5.77580E-04-1.24213E-05-1.66038E-05-4.60630E-05
 -1      2054-4.24092E-06 1.70137E-06 9.14444E-07-4.91278E-07-1.10509E-06-1.28933E-06
 -1      2055-3.11295E-06 1.25834E-06 3.75807E-07 2.16809E-07-3.68125E-06 2.72341E-06
 -1      2056-4.91542E-06 6.54488E-07 5.83580E-06-1.05853E-06-1.67717E-05-1.17975E-06
 -1      2057 5.80600E-05 4.69603E-05-1.70047E-04-4.00313E-07-2.08422E-05-1.56376E-05
 -1      2058 3.11086E-05 2.38931E-05-8.85592E-05-2.49485E-07-1.63784E-05-1.21447E-05
 -1      2059-2.57432E-07 1.18593E-07 3.99523E-08 3.13345E-08-4.83589E-06-5.55349E-06
 -1      2060 4.12895E-07 2.43959E-06-6.31753E-06 4.01476E-07-7.13810E-06-6.51598E-06
 -1      2061-1.56931E-06 8.94822E-07-4.40628E-08-2.28323E-06-8.34868E-06-3.40511E-06
 -1      2062-2.24842E-05-1.79864E-05 7.43311E-05-5.32943E-06-3.69763E-05 4.13714E-06
 -1      2063-2.06525E-05-1.89997E-05 6.86083E-05-5.40865E-07-3.42521E-05 3.28302E-06
 -1      2064-1.33747E-05-4.91459E-06 2.38180E-05-3.50746E-07-2.56492E-05-1.06959E-05
 -1      2065 5.58240E-06 7.49903E-05-2.49136E-04 1.53029E-04-6.15587E-05-5.08833E-06
 -1      2066-6.30018E-05-6.66262E-05 2.13033E-04-4.70915E-06-5.13406E-05-5.10171E-06
 -1      2067-2.21833E-05-3.37052E-05 9.10221E-05-8.74017E-07-4.57154E-05 3.34560E-06
 -1      2068-3.84421E-06-7.23342E-06 1.35356E-05 1.61226E-07-1.35146E-05 7.63427E-06
 -1      2069-2.05196E-05-2.00394E-05 6.55362E-05 7.71590E-07-2.56754E-05-1.19655E-05
 -1      2070-7.80642E-05-1.54839E-04 4.13970E-04-2.63704E-05-6.84419E-05 2.59810E-05
 -1      2071-5.64329E-05-2.61087E-05 1.38729E-04-2.17630E-05-1.02250E-04 2.24419E-05
 -1      2072-1.14393E-06 1.97835E-06-2.26097E-06 2.19597E-08-4.05769E-06-4.34689E-06
 -1      2073-4.01205E-05-7.85942E-05 2.14792E-04 6.74800E-06-6.39651E-05-2.17875E-05
 -1      2074 7.32425E-05 6.49213E-05-2.27984E-04-3.35615E-06-2.13674E-05-7.40453E-06
 -1      2075 4.47318E-05 3.60327E-05-1.32029E-04-2.35331E-06-1.78761E-05-8.72710E-06
 -1      2076-2.13205E-05-4.03548E-05 7.51207E-05 1.61525E-05-5.74771E-05-2.52694E-05
 -1      2077 2.13677E-05 1.55494E-05-5.61291E-05-6.73788E-07-1.27783E-05-8.71575E-06
 -1      2078 7.63046E-06 1.12236E-05-4.31899E-05-2.36578E-06-1.05751E-05-1.10352E-05
 -1      2079-2.84677E-07 6.76545E-07-1.45904E-06 8.91267E-08-1.13252E-06-1.56094E-06
 -1      2080-3.14873E-06 6.89964E-07 1.61894E-06-1.88780E-07-1.37769E-06-2.14456E-06
 -1      2081-7.04578E-07 8.63638E-07-1.00620E-06-1.02285E-07-2.12341E-06-2.84923E-06
 -1      2082-4.05597E-07 1.06594E-06-1.78282E-06-4.59583E-07-1.96090E-06-2.00987E-06
 -1      2083-1.09391E-07 9.98788E-07-1.63578E-06-6.58757E-08-8.35922E-07-5.90047E-07
 -1      2084-2.19822E-05-3.20628E-05 8.59619E-05 1.00677E-05-5.37535E-05-1.28574E-05
 -1      2085-4.10344E-05-2.38864E-05 1.05245E-04 1.97156E-06-3.51043E-05-5.38821E-06
 -1      2086 4.01615E-05 4.06438E-05-1.39381E-04-9.89332E-06-3.71457E-05 7.99184E-06
 -1      2087-4.29855E-05-4.21413E-05 1.26025E-04-6.69803E-06-3.91626E-05 1.98373E-05
 -1      2088-7.17542E-05-7.65828E-05 2.47134E-04-6.34892E-07-3.70354E-05 4.50320E-05
 -1      2089 2.25447E-06 6.31295E-06-7.64640E-06-1.27151E-07-3.46113E-05 3.21871E-05
 -1      2090-3.17889E-05-1.44538E-05 6.29869E-05 1.08923E-06-6.68934E-05 1.97807E-06
 -1      2091 9.64482E-06-2.46643E-06-3.38268E-05-7.39370E-06-7.08037E-05-6.68441E-06
 -1      2092-4.06288E-05-1.01181E-04 2.46180E-04-8.14628E-06-5.80240E-05 1.83600E-05
 -1      2093-9.36464E-05-9.59200E-05 3.36185E-04-1.05634E-05-5.84405E-05 3.52789E-05
 -1      2094-2.80526E-05-2.72186E-05 9.18521E-05-4.07572E-07-2.13223E-05 5.93194E-05
 -1      2095-7.64744E-05-5.87980E-05 2.13801E-04 3.76791E-07-6.83417E-05-2.72498E-06
 -1      2096-1.85569E-06-1.39027E-06 4.98930E-06-3.11959E-07-5.48983E-06-4.35475E-06
 -1      2097 8.52537E-05 1.05256E-04-2.95375E-04 1.14061E-05-2.96513E-05-3.11440E-05
 -1      2098 1.09588E-06 3.71344E-07-1.22333E-05 4.34534E-07-1.12427E-05-9.78326E-06
 -1      2099-3.15103E-06-3.89466E-06 1.24447E-05-9.22215E-09-1.15710E-05-8.40982E-06
 -1      2100-2.02063E-06-5.74590E-06 9.86978E-06-4.90583E-07-1.12836E-05 3.60471E-06
 -1      2101 3.90327E-06 2.71749E-06-9.61641E-06-1.43968E-06-8.52968E-06-1.69794E-05
 -1      2102-3.76089E-06 5.59680E-07 1.93584E-06 2.74851E-07-3.49507E-06-1.06617E-06
 -1      2103-2.30940E-05-1.39006E-05 5.32325E-05-6.77524E-06-2.13817E-05 1.59464E-05
 -1      2104-8.90582E-06-5.85131E-06 1.96795E-05-2.67478E-06-2.02291E-05 5.69389E-06
 -1      2105 3.65544E-06 5.78201E-06-1.80054E-05 3.45125E-07-7.47635E-06-5.81504E-06
 -1      2106 1.92836E-06 6.34754E-07-7.52676E-06-9.85420E-07-7.37993E-06-7.23570E-06
 -1      2107-9.09079E-07 3.38217E-08 5.85143E-07-1.92909E-09-1.06759E-06-1.51977E-06
 -1      2108-5.03544E-06-1.99961E-06 8.82722E-06-1.01862E-06-1.86155E-05 7.02571E-06
 -1      2109-2.22807E-05-8.13499E-06 4.80388E-05-1.63493E-06-2.14220E-05 1.62204E-05
 -1      2110-1.92096E-05-1.89402E-05 5.55329E-05-3.62374E-06-1.60958E-05 1.07710E-05
 -1      2111-9.89908E-07 2.95575E-06-2.78185E-06-6.28887E-07-8.78483E-06 8.01512E-07
 -1      2112-7.03322E-06-1.59043E-05 3.67025E-05 6.99894E-06-3.91725E-05 7.96942E-06
 -1      2113-1.88516E-06 1.65930E-06-1.33826E-06-3.41116E-07-4.13953E-06-3.10002E-06
 -1      2114-4.25265E-06 2.15982E-07 3.77307E-06-9.00477E-07-6.81967E-06 2.49870E-06
 -1      2115-7.78751E-06 2.31304E-05-3.77240E-05-8.15674E-07-6.71090E-05 2.42054E-06
 -1      2116-6.76569E-05-4.32252E-05 2.09209E-04-2.51901E-05-4.87300E-05 5.34087E-05
 -1      2117-8.58341E-07 1.77376E-05-2.48166E-05 2.43390E-06-2.84612E-05 9.29564E-06
 -1      2118-1.12645E-05-1.98231E-05 4.71318E-05 2.10827E-08-2.79033E-05 9.10543E-06
 -1      2119 9.31415E-05 7.90686E-05-2.79918E-04-1.78149E-05-2.16997E-05-8.17563E-06
 -1      2120 3.05591E-06 2.07407E-06-8.44776E-06-2.14572E-07-5.69178E-06-4.71179E-06
 -1      2121-3.63529E-05-2.46532E-05 1.09267E-04 3.94286E-06-3.88177E-05 2.62591E-05
 -1      2122 2.90638E-05 6.46305E-05-1.48715E-04-4.22650E-06-2.89423E-05 2.18152E-05
 -1      2123-3.19132E-05-2.14172E-05 8.16743E-05 4.11573E-07-3.16439E-05-3.35585E-06
 -1      2124 6.91930E-05 5.90504E-05-2.18453E-04-1.27546E-05-2.58250E-05-1.90310E-05
 -1      2125 3.86596E-05 3.43718E-05-1.23693E-04-7.43990E-06-1.99919E-05-1.36038E-05
 -1      2126 7.21591E-06 1.18035E-05-2.77826E-05-1.36717E-06-6.07706E-06 5.01181E-06
 -1      2127 5.09621E-06 6.90764E-06-2.06711E-05 6.76040E-08-8.02342E-06 1.04364E-05
 -1      2128-1.05502E-06-4.29575E-06 5.45935E-06-3.43145E-06-9.52080E-06 1.78221E-05
 -1      2129-1.80383E-05-6.52418E-06 3.45034E-05-1.08389E-06-1.75645E-05 6.58936E-06
 -1      2130-3.54235E-06-3.00266E-06 8.84939E-06-3.31242E-07-8.95405E-06-7.11446E-06
 -1      2131-4.55705E-05-3.87598E-05 1.35463E-04-3.20442E-07-3.75694E-05 1.09159E-05
 -1      2132-3.65761E-05-2.76262E-05 8.96455E-05-6.82761E-06-2.55365E-05 1.76608E-05
 -1      2133-7.32397E-06-6.81705E-06 1.53580E-05-2.74207E-06-2.65978E-05 4.83509E-06
 -1      2134-3.84458E-06-9.11873E-06 2.20604E-05 2.31272E-06-1.64476E-05 6.30535E-06
 -1      2135-2.10305E-05-3.13460E-05 7.67505E-05-6.45559E-07-3.88905E-05 1.22693E-05
 -1      2136-7.86559E-05-8.46813E-05 2.74874E-04-1.29620E-06-3.84133E-05 2.15747E-05
 -1      2137-1.17197E-05-7.92429E-06 3.68722E-05-4.25066E-06-2.59127E-05 1.90417E-06
 -1      2138-8.05842E-07 2.52498E-06-4.97072E-06-1.36027E-07-1.43439E-05 1.35296E-05
 -1      2139-8.72378E-06-2.75358E-06 1.64174E-05-2.72750E-06-1.77933E-05 1.36598E-05
 -1      2140-1.20721E-05-1.12397E-05 3.02516E-05-2.90601E-06-1.33805E-05 1.88569E-05
 -1      2141-2.36481E-05 4.56402E-05-5.27142E-05-5.70306E-05-2.37416E-05 4.76532E-05
 -1      2142-8.00163E-05-1.27777E-04 4.35506E-04-4.15642E-05-5.64314E-05 3.92587E-05
 -1      2143 2.25131E-05 1.19118E-04-2.83717E-04-2.68679E-05-6.39787E-05 3.05365E-05
 -1      2144-8.92167E-06 1.06409E-06 6.06858E-06-4.60810E-06-4.09146E-05 1.27516E-05
 -1      2145 2.46249E-07-5.75009E-07-1.39911E-07 8.92709E-08-3.16455E-06-4.02402E-06
 -1      2146-4.20979E-06-7.61847E-07 5.60716E-06 7.44952E-08-8.66018E-06-7.53233E-06
 -1      2147-2.01090E-06 2.03906E-06-7.91856E-07-6.99976E-07-1.15300E-05-9.76172E-06
 -1      2148-6.03102E-06 1.37842E-07-5.85413E-07 5.41988E-06-5.79059E-05-2.86498E-05
 -1      2149 1.57805E-05-1.37109E-05-4.12161E-06-2.91595E-05-4.04370E-05 6.40425E-06
 -1      2150 5.52331E-05 8.41744E-05-2.94968E-04-4.55293E-05 3.36125E-05 3.96597E-05
 -1      2151 2.14667E-04 5.22453E-04-1.34944E-03-8.38597E-05-1.58772E-04 2.23102E-04
 -1      2152 7.07295E-05 1.33835E-04-3.43088E-04-1.22890E-04 1.00543E-04 1.89445E-05
 -1      2153 1.02216E-04 1.94184E-04-6.44068E-04 4.52325E-05 2.04101E-07-7.04903E-05
 -1      2154 2.64425E-04 4.81489E-04-1.40075E-03-2.34144E-05-1.92205E-05 1.48875E-04
 -1      2155 5.88908E-05 4.74768E-05-1.74331E-04-1.02231E-05-2.16247E-05-1.05911E-05
 -1      2156-1.31400E-05-1.71724E-05 4.44212E-05-2.06952E-07-1.53764E-05 4.21780E-05
 -1      2157 8.42123E-06-1.59203E-04 3.22149E-04-5.79031E-05-6.50768E-05-7.66765E-06
 -1      2158-7.27493E-06-3.42206E-05 3.68182E-05-7.29091E-05-8.50387E-05-2.10182E-05
 -1      2159-4.76852E-05-9.71742E-05 2.42844E-04-8.11642E-07-7.44290E-05-2.34564E-06
 -1      2160-7.47678E-05-9.12834E-05 2.76391E-04 7.32390E-06-7.84810E-05 3.19620E-06
 -1      2161-2.54170E-06 2.27313E-05-3.04543E-05 1.30778E-06-3.62134E-05 1.22588E-05
 -1      2162 1.40089E-05 1.40814E-05-3.08987E-05-5.65560E-06-3.94632E-05 5.23132E-05
 -1      2163 5.02840E-05 4.41823E-05-1.89182E-04-1.42627E-05-3.10146E-05 1.19367E-05
 -1      2164-1.41052E-05-8.62463E-05 1.75106E-04-1.50120E-05-7.44349E-06 1.84933E-05
 -1      2165 5.62802E-06 1.04698E-05-3.67268E-05-1.00713E-06-8.08288E-06-7.62705E-06
 -1      2166-4.93259E-06-3.05710E-06 1.07483E-05-3.20900E-07-7.05185E-06 4.09526E-06
 -1      2167-5.41213E-06 2.37141E-05-3.19725E-05-4.89636E-06-5.03041E-05 3.76843E-05
 -1      2168-8.10873E-05-9.93274E-05 3.26143E-04-7.17414E-06-4.39681E-05 4.91899E-05
 -1      2169 3.21102E-05 3.77639E-05-1.17790E-04-7.48678E-07-5.18148E-06-2.74200E-05
 -1      2170 3.60553E-05 3.68938E-05-1.19300E-04 4.91658E-06-5.88605E-06-2.26352E-05
 -1      2171 1.69152E-05 1.40276E-05-5.30344E-05 1.11502E-06-9.03112E-06 6.15522E-06
 -1      2172 1.38675E-05 1.54571E-05-4.97918E-05-1.79555E-06-1.09065E-05 1.64227E-05
 -1      2173 1.55304E-07 1.74563E-06-3.75247E-06 5.71602E-07-4.49404E-06-4.52612E-06
 -1      2174-2.38061E-08 8.96809E-07-1.60966E-06-4.42663E-07-4.49030E-06-4.29516E-06
 -1      2175 8.16012E-06 7.66447E-06-2.81157E-05 1.69566E-06-1.58942E-05-1.68816E-05
 -1      2176 2.81757E-05 2.78209E-05-9.02529E-05-5.48238E-06-1.49422E-05-8.33122E-06
 -1      2177-1.84553E-05-8.60795E-06 5.62008E-05-1.77897E-06-2.64458E-05 1.45941E-05
 -1      2178-4.85807E-05-5.55450E-05 1.64779E-04-7.68146E-07-3.92191E-05 1.56473E-05
 -1      2179 1.01328E-06 1.80771E-06-5.12452E-06 9.92167E-08-3.69261E-06-3.98569E-06
 -1      2180 1.06772E-04 2.56124E-04-6.56061E-04 6.54071E-05 1.66647E-05-9.83248E-05
 -1      2181-4.56223E-06 1.80277E-06 2.72466E-06-1.23611E-06-8.50989E-06 2.71944E-06
 -1      2182 5.44947E-06 4.04941E-06-1.76351E-05-1.33882E-06-1.15397E-05-8.84611E-06
 -1      2183-6.05384E-07 5.98490E-08 4.03674E-07-3.28252E-08-2.26929E-06-2.70422E-06
 -1      2184-2.90653E-05-3.60214E-05 1.05458E-04 5.58272E-06-7.52260E-05-2.74914E-05
 -1      2185-1.45972E-05-1.25555E-05 3.63371E-05-4.82889E-06-1.83315E-05 2.13195E-05
 -1      2186 3.81603E-06-3.58331E-06-4.01104E-07 2.41104E-06-1.86237E-05 1.20666E-05
 -1      2187 1.08161E-04 1.10295E-04-2.23231E-04 3.68925E-05 8.72192E-07 5.52501E-05
 -1      2188 1.44296E-04 1.36538E-04-5.01626E-04-1.85649E-06-3.74302E-05-1.96907E-06
 -1      2189-9.01906E-06-4.02910E-06 1.74592E-05-1.21597E-06-8.24533E-06 6.64150E-06
 -1      2190 6.48426E-05 9.46865E-05-2.47953E-04-1.18867E-06-3.75519E-06 2.19770E-05
 -1      2191 2.51207E-04 5.01839E-04-1.43702E-03-1.23802E-05 4.32109E-05 1.89223E-04
 -1      2192-3.56698E-05-6.69267E-05 1.69861E-04-1.14955E-05-3.97469E-05 2.79640E-05
 -1      2193-8.74101E-05-8.49319E-05 2.99212E-04-7.55587E-06-5.25683E-05 4.40434E-05
 -1      2194 2.61266E-05 1.38069E-05-7.46697E-05-6.45842E-06-4.92230E-05 1.15386E-05
 -1      2195 2.01217E-06 2.28866E-06-4.13389E-06 2.13867E-07-9.84208E-06-7.58777E-06
 -1      2196-2.21988E-06 1.66321E-06 9.44832E-07-6.76779E-07-1.00404E-05-6.28103E-06
 -1      2197-9.30660E-06-1.10965E-05 2.37946E-05 2.09090E-06-3.33268E-05 1.12118E-05
 -1      2198-4.31521E-05-4.83570E-05 1.44380E-04-1.50256E-06-3.67125E-05 2.83861E-05
 -1      2199 5.22986E-05 4.97486E-05-1.71520E-04-3.49575E-06-3.33957E-05 1.55690E-05
 -1      2200-2.65098E-05-1.10395E-05 7.78845E-05-1.59439E-06-5.46933E-05-3.14768E-05
 -1      2201 1.35138E-04 1.22159E-04-4.70670E-04 3.76767E-06-1.03302E-05 2.52078E-05
 -1      2202 4.58936E-05 5.92510E-05-1.67067E-04-5.52806E-06-4.38329E-05 5.26419E-05
 -1      2203 2.99749E-04 3.54882E-04-1.12854E-03-5.62870E-06-9.04448E-06-7.95779E-06
 -1      2204-6.73305E-06-2.99110E-06 1.25580E-05 3.21681E-07-7.46918E-06 5.65752E-06
 -1      2205 4.59060E-06 6.10725E-06-1.87773E-05-1.35853E-07-7.77964E-06-6.26196E-06
 -1      2206-2.13213E-06-8.10185E-07 2.18034E-06-9.61096E-07-1.21354E-06 3.13409E-06
 -1      2207-1.46442E-06 1.21167E-06-7.53722E-07-9.66535E-07-1.31387E-06 4.19334E-06
 -1      2208-4.84727E-07 5.58348E-06-1.19605E-05-5.96030E-07-2.41054E-05 1.38552E-05
 -1      2209 4.62003E-05 4.18850E-05-1.44521E-04 2.91191E-07-1.32410E-06-2.55169E-05
 -1      2210-2.86371E-06-2.40391E-07 4.09803E-06-7.50348E-08 3.20821E-07-4.84470E-06
 -1      2211 6.94600E-06 6.81515E-06-2.08168E-05-1.49499E-06-1.15847E-05-7.45000E-06
 -1      2212-1.02991E-05-1.72826E-06 2.57220E-05-6.34670E-09-2.09618E-05 1.01701E-05
 -1      2213-3.28191E-05-3.49180E-05 1.01497E-04-1.45578E-06-2.35350E-05 1.31742E-05
 -1      2214 3.51499E-06 1.46845E-06-1.02578E-05-3.27968E-06-6.61694E-06 3.80307E-06
 -1      2215 6.18986E-06 1.30102E-05-3.04036E-05-2.98621E-07-7.75047E-06-2.07466E-06
 -1      2216 1.81883E-06 4.19624E-06-7.73108E-06-7.33646E-07-7.81637E-06 5.80595E-06
 -1      2217-3.78664E-06-4.41240E-06 9.14062E-06-1.81750E-06-6.31238E-06 1.10739E-05
 -1      2218-5.66859E-05-5.02738E-05 1.92230E-04 1.18771E-07-3.29487E-05 7.07006E-05
 -1      2219 1.66627E-06 2.05522E-06-1.19035E-06 1.65428E-06-8.44916E-06 1.89623E-05
 -1      2220-1.26508E-05-8.24383E-06 3.20387E-05 4.56448E-07-1.90443E-05 2.48063E-05
 -1      2221 1.48051E-05 2.78434E-05-7.10773E-05 4.67488E-06-3.65993E-05 4.27850E-05
 -1      2222 3.69457E-05 1.73228E-05-1.14545E-04-3.46162E-07-4.44590E-05 2.05082E-05
 -1      2223-4.63580E-05-6.14585E-05 1.93934E-04 4.07216E-06-2.74537E-05 5.64677E-05
 -1      2224-3.77561E-05-5.05959E-05 1.61563E-04 9.62902E-06-6.72412E-05-2.47102E-05
 -1      2225-1.13850E-05-8.59983E-06 2.64846E-05-1.69743E-06-1.17848E-05 1.28058E-05
 -1      2226 7.52721E-07 2.74580E-06-8.72288E-06-9.48929E-07-9.22330E-06-6.90964E-06
 -1      2227 2.73512E-04 2.85863E-04-9.67380E-04-2.52985E-06 2.23008E-06-1.91899E-05
 -1      2228 1.03288E-06 2.40333E-06-4.98000E-06-3.95562E-07-3.54266E-06-2.57755E-06
 -1      2229 2.57979E-05 9.17860E-06-6.42921E-05-4.62625E-05-5.13169E-05-1.93235E-05
 -1      2230-7.63015E-06 4.39548E-06 3.90787E-06 7.59287E-07-3.66171E-05 1.12115E-05
 -1      2231 3.25105E-06-1.47482E-06-8.77696E-06-1.31578E-06-6.64388E-06 1.03410E-05
 -1      2232-3.23467E-06 4.05514E-06 1.07699E-06-1.05516E-06-6.22813E-06 7.63074E-06
 -1      2233-2.97758E-06 5.64754E-08 2.76618E-06-9.29016E-07-6.36018E-06 5.64796E-06
 -1      2234 8.13055E-07 3.33758E-06-4.59234E-06 7.14694E-08-6.72405E-06 3.36047E-06
 -1      2235 6.20966E-05 7.28040E-05-2.27456E-04 4.18683E-07-6.18428E-05 1.35971E-05
 -1      2236 1.96349E-05 3.27861E-05-8.42774E-05-9.12854E-06-4.19788E-05 1.80758E-05
 -1      2237-4.24094E-05-3.29867E-05 1.28646E-04-3.09517E-06-3.07299E-05 2.50363E-05
 -1      2238-1.01660E-05-4.17088E-06 2.38612E-05-6.39250E-07-3.00921E-05 1.11617E-05
 -1      2239-1.43189E-05-2.04169E-05 6.68575E-05 2.94124E-06-2.72290E-05 1.63204E-05
 -1      2240 2.46664E-04 2.87071E-04-9.14517E-04 1.06649E-05-2.73393E-05-3.59619E-05
 -1      2241-3.82875E-05-3.35850E-05 1.05687E-04-3.67840E-06-2.93425E-05 6.20658E-06
 -1      2242 2.74410E-05 5.78786E-05-1.54889E-04-1.71187E-06-5.26739E-05 1.68621E-05
 -1      2243 9.24375E-06-3.86927E-06-2.28921E-05-1.02731E-06-4.78990E-05 1.88097E-05
 -1      2244-5.93993E-07-4.23351E-07 6.17548E-07-8.70676E-07-8.58869E-07 1.91832E-07
 -1      2245 3.16623E-06 1.36036E-05-2.78493E-05 2.30599E-06-3.34000E-05 3.86365E-05
 -1      2246-3.83604E-05-2.91298E-05 1.22926E-04 7.28743E-06-3.05459E-05 4.09281E-05
 -1      2247-6.56769E-06-5.19644E-06 1.38209E-05 9.43075E-07-2.49350E-05 8.64955E-06
 -1      2248 7.46147E-06 1.10461E-05-2.84753E-05 1.09634E-06-5.68518E-07-9.92255E-06
 -1      2249 2.83724E-06 1.08492E-05-2.19260E-05-2.44573E-06-1.82686E-05 1.49156E-05
 -1      2250 5.72692E-06-4.05455E-05-5.74607E-05-9.81089E-05 4.39721E-05-1.23594E-05
 -1      2251-1.10135E-05-3.63909E-06 4.63177E-05-1.14959E-04-5.50258E-05-2.15141E-07
 -1      2252-2.01564E-06 7.03838E-07 8.47965E-07-6.65225E-07-1.13961E-05 1.13736E-05
 -1      2253-1.83642E-05-2.28478E-05 6.41437E-05 7.45839E-07-3.30808E-05 3.25695E-06
 -1      2254-2.19039E-06 2.62637E-06-5.28213E-06 9.41440E-07-3.54023E-05 2.27406E-05
 -1      2255-7.20357E-06-1.99488E-06 1.15835E-05-1.55380E-06-1.31709E-05 8.33142E-06
 -1      2256-2.20908E-05-2.18200E-05 7.07638E-05 2.09203E-07-1.59979E-05 5.11238E-05
 -1      2257-2.82110E-05-1.63687E-05 5.91285E-05-8.33504E-06-2.10409E-05 3.26566E-05
 -1      2258 3.66353E-06 1.53868E-05-3.44755E-05 2.91232E-06-3.75621E-05 2.10800E-05
 -1      2259-5.93172E-06 1.57748E-06 2.16561E-06-1.53624E-06-1.39966E-06 3.46156E-06
 -1      2260 6.95981E-05 5.03730E-05-2.20922E-04-4.47596E-07-2.52674E-05 1.77970E-05
 -1      2261-4.40180E-05-5.30103E-05 1.43182E-04-5.95299E-06-4.15016E-05 4.04810E-05
 -1      2262-1.25899E-05-1.59601E-05 2.91451E-05-3.48544E-06-3.85027E-05 3.51923E-05
 -1      2263 1.43014E-04 1.61807E-04-5.22834E-04-3.99867E-06-4.78942E-05 6.55734E-06
 -1      2264-1.25385E-05-3.74228E-06 2.10618E-05-5.93657E-06-4.59997E-05 3.09557E-05
 -1      2265 9.44540E-05 8.36495E-05-3.13148E-04-3.35239E-06-2.39707E-05 2.34202E-05
 -1      2266-6.32375E-07 1.24555E-06-2.54938E-06-4.75324E-07-1.00300E-05 6.08884E-06
 -1      2267-4.70026E-05-4.30983E-05 1.45523E-04-7.50876E-07-3.77934E-05 2.28411E-06
 -1      2268-1.96784E-05-1.88535E-05 5.79969E-05 1.07239E-06-4.26144E-05 2.69570E-05
 -1      2269 5.37175E-06 1.21935E-05-2.78748E-05-2.58309E-06-2.40687E-05 2.43926E-05
 -1      2270 6.21554E-05 6.34572E-05-2.02922E-04 4.83119E-06-4.39376E-05 3.69532E-05
 -1      2271 1.27818E-05 2.08326E-05-4.70256E-05-3.02024E-07-3.28544E-05 2.13639E-05
 -1      2272-2.53972E-05-1.20981E-05 4.72544E-05-5.61336E-06-2.58007E-05 3.62767E-05
 -1      2273-7.64410E-06-9.32808E-06 2.07704E-05-3.58690E-06-1.41863E-05 2.29654E-05
 -1      2274 7.30289E-06-7.42464E-07-1.35457E-05 8.60080E-07-1.46972E-05 1.03199E-05
 -1      2275-2.14588E-05-1.16193E-05 7.58397E-05-6.49129E-06-1.88865E-05 5.12076E-05
 -1      2276 5.70311E-05 4.77141E-05-1.89686E-04-2.64306E-06-3.11501E-05 2.97049E-05
 -1      2277 6.32616E-05 6.30723E-05-2.06626E-04 1.02527E-05-3.04386E-05 3.89371E-05
 -1      2278 3.19078E-06-4.26445E-06 1.63786E-06-3.80890E-06-2.05822E-05 3.21036E-05
 -1      2279 8.40136E-06 1.24095E-05-3.81702E-05-3.94101E-08-2.86389E-05 2.76515E-05
 -1      2280-6.18411E-05-6.75568E-05 2.11962E-04-2.47467E-06-4.29658E-05 1.01234E-05
 -1      2281-3.42186E-05-4.60308E-05 1.21791E-04-7.44442E-06-3.57053E-05 5.50138E-05
 -1      2282-6.73469E-05-1.02777E-04 2.65208E-04-7.60148E-06-5.36590E-05 5.80255E-05
 -1      2283-2.47477E-05-2.69171E-05 7.98830E-05-2.05994E-06-2.67771E-05 2.05235E-05
 -1      2284-2.91636E-05-3.03937E-05 1.05552E-04-1.85481E-06-3.08784E-05 4.12117E-05
 -1      2285-1.57827E-06 1.36815E-05-5.09677E-06-1.93296E-06-1.76341E-05 3.43151E-05
 -1      2286-4.78731E-05-3.06428E-04 2.45527E-04-1.42835E-04 1.25139E-05 1.09784E-05
 -1      2287-2.88528E-05-2.28039E-04 6.03142E-04-1.13759E-04 1.97283E-05-1.95394E-05
 -1      2288-2.29288E-05-2.83035E-05 9.39506E-05-5.94811E-06-3.83525E-05 1.60726E-05
 -1      2289 4.75555E-07 2.91470E-06-4.83848E-06-1.57090E-06-7.61963E-06 3.78246E-06
 -1      2290-1.00489E-06 5.46911E-07-2.15179E-06-8.80356E-07-4.77773E-06 2.13542E-06
 -1      2291-1.78176E-05-8.51202E-06 2.96577E-05-5.08975E-07-3.70712E-05 2.74780E-05
 -1      2292 1.17013E-06 7.47838E-06-1.15716E-05-1.13615E-06-5.50791E-06 4.18126E-06
 -1      2293 1.05869E-04 1.07939E-04-3.50642E-04 1.07928E-05-2.01690E-05 2.45218E-05
 -1      2294 2.55357E-04 3.72329E-04-1.15725E-03-1.40028E-05 2.20073E-05 6.53945E-05
 -1      2295 1.28288E-04 1.99566E-04-5.48584E-04-5.55354E-06-4.59198E-06 6.15355E-05
 -1      2296 3.27062E-06 4.58941E-06-9.16306E-06 2.11824E-06-9.32657E-06 1.07904E-05
 -1      2297 3.44288E-05-4.15594E-05-6.06673E-04-1.45715E-04 3.11578E-05 3.99465E-05
 -1      2298-6.26467E-05-9.00469E-05 2.56107E-04-7.63251E-06-4.95228E-05 2.46718E-05
 -1      2299-4.89081E-05-6.89556E-05 1.90484E-04-9.16148E-06-3.29462E-05 3.90964E-05
 -1      2300 3.17015E-05 1.88015E-05-1.01997E-04-8.52638E-07-3.80936E-05 1.74489E-05
 -1      2301 2.51749E-04 3.59412E-04-1.09103E-03 2.07846E-06-8.66523E-06 3.48046E-05
 -1      2302-2.28837E-05-1.10156E-04 3.05381E-04-2.01217E-05-5.46684E-06 1.18909E-05
 -1      2303-2.89486E-05-2.03864E-05 8.11549E-05-8.92265E-07-3.67910E-05 3.95626E-05
 -1      2304-1.01614E-06-1.85665E-06 1.81739E-06-1.24303E-06-4.59927E-06 7.20406E-06
 -1      2305-9.18619E-08-4.91952E-07 7.01227E-07-3.71271E-09-3.52834E-06 3.00016E-06
 -1      2306-4.12287E-06-4.08117E-06 1.14756E-05-1.44527E-06-1.04441E-05 2.03206E-05
 -1      2307-5.84825E-06 1.07723E-06 2.85651E-06-1.04311E-06-1.45052E-06 6.09174E-07
 -1      2308 1.70608E-04 2.07716E-04-6.73666E-04-1.56439E-05-1.99815E-05 4.85557E-05
 -1      2309-1.54467E-05-8.79563E-05 2.09563E-04-7.00151E-05-6.45419E-06-2.58293E-05
 -1      2310 1.02126E-04 7.15826E-05-3.60471E-04-3.06154E-05-8.24555E-07 2.51159E-05
 -1      2311 7.08624E-05 8.76235E-05-2.32918E-04 7.62982E-06-2.71734E-05 1.46646E-05
 -1      2312 1.04843E-04 8.85000E-05-3.49338E-04-3.27487E-06-2.97807E-05 1.51762E-05
 -1      2313 3.66198E-05-1.48727E-04 2.92080E-04-4.20232E-05-9.72786E-06-4.27849E-05
 -1      2314-3.19096E-05-3.86136E-05 1.10179E-04-1.63685E-06-3.61302E-05 4.09306E-05
 -1      2315-2.34627E-06-7.22709E-06 2.28168E-05-2.02594E-06-1.75671E-05 3.34985E-05
 -1      2316-1.69710E-05-2.29413E-05 5.82513E-05-1.28693E-06-2.46027E-05 2.98563E-05
 -1      2317 2.19582E-08-2.35154E-06 8.16463E-06-3.88016E-07-1.09059E-05 2.43685E-05
 -1      2318 3.71274E-05 1.06292E-04-2.42658E-04-1.28618E-05-3.68012E-05 4.48094E-05
 -1      2319 4.09333E-06 6.67489E-06-1.97557E-05 7.31735E-07-2.68934E-05 1.59335E-05
 -1      2320-9.32482E-06-9.25412E-05 2.08915E-04-1.78351E-05-9.61308E-06 5.64239E-06
 -1      2321-1.20488E-05-2.08617E-06 1.98980E-05-3.51592E-06-1.77984E-05 3.00154E-05
 -1      2322-1.82862E-05-7.31086E-06 3.96043E-05-3.07205E-06-2.46934E-05 3.86812E-05
 -1      2323-3.96282E-06-2.03364E-07 3.31521E-06-7.52897E-07-4.05615E-06 6.21363E-06
 -1      2324-2.06752E-05-1.75954E-05 4.93127E-05-3.38081E-07-2.62809E-05 3.34274E-05
 -1      2325-1.95160E-05-2.39190E-05 6.58366E-05-2.16188E-06-3.00606E-05 3.37672E-05
 -1      2326 3.34501E-06-4.36537E-06 8.88820E-06 1.16091E-06-2.38915E-05 2.60294E-05
 -1      2327-1.74955E-05-7.96458E-06 2.80822E-05-3.93645E-06-2.06818E-05 2.73343E-05
 -1      2328-1.15040E-05-6.36536E-06 2.98447E-05 7.96471E-07-1.82295E-05 3.53195E-05
 -1      2329 2.64569E-06 6.92608E-06-1.24757E-05 7.10402E-07-4.20250E-06 1.01623E-05
 -1      2330-5.04853E-06 2.00949E-06 5.40588E-07-1.21465E-06-1.30850E-06-3.49598E-07
 -1      2331-3.67382E-06-1.33760E-05 3.70603E-05 4.03274E-06-2.43812E-05 3.04022E-05
 -1      2332-2.52261E-08-7.67196E-06 1.73366E-05 2.65439E-06-1.62838E-05 2.13141E-05
 -1      2333 2.51364E-06 9.52968E-06-2.40509E-05-4.43015E-07-2.02282E-05 2.03492E-05
 -1      2334 8.56300E-05 8.28096E-05-2.83181E-04 7.81138E-06-4.05243E-05 8.71662E-06
 -1      2335-1.22538E-06 4.09163E-06-3.36891E-06-5.70831E-07-4.42153E-06 9.30801E-06
 -1      2336 5.98475E-06 9.48107E-06-2.51337E-05-1.28376E-06-1.63767E-05 1.43008E-05
 -1      2337 8.45360E-06 1.72147E-05-4.30295E-05 3.87757E-07-1.10007E-05-3.45639E-07
 -1      2338-3.91976E-06-5.72309E-06 1.67049E-05-7.08858E-07-8.41669E-06 2.79125E-05
 -1      2339 1.89608E-07-2.36969E-06 1.02693E-05-3.41999E-06-1.56681E-05 2.69005E-05
 -1      2340 1.32876E-07 4.34355E-06-6.92078E-06 7.63817E-08-2.78643E-06-2.88032E-07
 -1      2341-1.06507E-06 2.00462E-06-2.09102E-06-5.71082E-07-1.15183E-06 2.36861E-06
 -1      2342-1.55443E-05-7.41360E-06 3.40991E-05-3.08175E-06-1.93807E-05 3.48241E-05
 -1      2343 2.15543E-05 2.28822E-05-7.69234E-05 6.43659E-07-1.46093E-05 6.49259E-06
 -1      2344 9.77393E-05 1.23082E-04-3.60638E-04 9.68468E-06-2.78912E-05 1.03087E-05
 -1      2345-3.54898E-05-4.79776E-04 3.17682E-04 1.93413E-04-2.48352E-06 6.23543E-05
 -1      2346 1.17105E-04 4.62444E-04-1.12182E-03-2.05021E-05 1.24611E-04 2.67049E-04
 -1      2347-1.62160E-06 2.83514E-07 2.36229E-06-9.78416E-07-8.21829E-07-4.65772E-06
 -1      2348-5.43913E-07 1.01501E-06-1.44587E-06-9.17387E-07-1.30166E-06 5.28110E-07
 -1      2349 2.74188E-05-7.30548E-06-5.91578E-05-1.39461E-05-1.37036E-05 3.68483E-05
 -1      2350 3.76273E-05 4.80845E-05-1.51701E-04 3.73364E-06-3.98781E-05 6.54520E-06
 -1      2351 2.13404E-04 2.09028E-04-7.15277E-04 7.14927E-07-1.04085E-05-5.73340E-05
 -1      2352 1.26965E-05 1.13450E-05-3.78961E-05-1.68960E-06-1.05372E-06-1.19232E-05
 -1      2353 1.64668E-05 1.95175E-05-6.01539E-05 1.03357E-06-3.19614E-07-1.87536E-05
 -3
    1PSTEP                         4           1           1          
  100CL  101 1.000000000        2353                     0    1           1
 -4  ERROR       1    1
 -5  STR(%)      1    1    0    0
 -1         1 3.18964E+01
 -1         2 2.36322E+01
 -1         3 2.82700E+01
 -1         4 3.43789E+01
 -1         5 2.57482E+01
 -1         6 1.43857E+01
 -1         7 3.22459E+01
 -1         8 3.41734E+01
 -1         9 3.41734E+01
 -1        10 3.31847E+01
 -1        11 3.27507E+01
 -1        12 3.22980E+01
 -1        13 3.22980E+01
 -1        14 3.21243E+01
 -1        15 3.21243E+01
 -1        16 3.24837E+01
 -1        17 3.28281E+01
 -1        18 3.28281E+01
 -1        19 3.26619E+01
 -1        20 3.27498E+01
 -1        21 3.27498E+01
 -1        22 3.27923E+01
 -1        23 3.27923E+01
 -1        24 3.25778E+01
 -1        25 3.25778E+01
 -1        26 3.25113E+01
 -1        27 3.25113E+01
 -1        28 3.24787E+01
 -1        29 3.04995E+01
 -1        30 3.25911E+01
 -1        31 3.25911E+01
 -1        32 3.08615E+01
 -1        33 2.88866E+01
 -1        34 3.07964E+01
 -1        35 2.89350E+01
 -1        36 3.20712E+01
 -1        37 3.32097E+01
 -1        38 3.41734E+01
 -1        39 3.36791E+01
 -1        40 3.29677E+01
 -1        41 3.25244E+01
 -1        42 3.22980E+01
 -1        43 3.22112E+01
 -1        44 3.21243E+01
 -1        45 3.23040E+01
 -1        46 3.26559E+01
 -1        47 3.28281E+01
 -1        48 3.27450E+01
 -1        49 3.27058E+01
 -1        50 3.27498E+01
 -1        51 3.27710E+01
 -1        52 3.27923E+01
 -1        53 3.26851E+01
 -1        54 3.25778E+01
 -1        55 3.25445E+01
 -1        56 3.25113E+01
 -1        57 3.24950E+01
 -1        58 3.14891E+01
 -1        59 3.15453E+01
 -1        60 3.25911E+01
 -1        61 3.17263E+01
 -1        62 2.98741E+01
 -1        63 2.98415E+01
 -1        64 2.98657E+01
 -1        65 2.62836E+01
 -1        66 2.51164E+01
 -1        67 2.63491E+01
 -1        68 1.90470E+01
 -1        69 2.37906E+01
 -1        70 2.37906E+01
 -1        71 2.43743E+01
 -1        72 2.57328E+01
 -1        73 2.26981E+01
 -1        74 2.14188E+01
 -1        75 2.37906E+01
 -1        76 2.60303E+01
 -1        77 3.25457E+01
 -1        78 3.25457E+01
 -1        79 3.21074E+01
 -1        80 3.16692E+01
 -1        81 2.95374E+01
 -1        82 2.95374E+01
 -1        83 2.79534E+01
 -1        84 2.71650E+01
 -1        85 2.56181E+01
 -1        86 2.44014E+01
 -1        87 2.90813E+01
 -1        88 2.20797E+01
 -1        89 2.91455E+01
 -1        90 2.82700E+01
 -1        91 3.34623E+01
 -1        92 3.25457E+01
 -1        93 3.23265E+01
 -1        94 3.18883E+01
 -1        95 3.06033E+01
 -1        96 2.95374E+01
 -1        97 2.87454E+01
 -1        98 2.75592E+01
 -1        99 2.63915E+01
 -1       100 2.50098E+01
 -1       101 2.67413E+01
 -1       102 2.55805E+01
 -1       103 2.56126E+01
 -1       104 2.87077E+01
 -1       105 2.82700E+01
 -1       106 4.26583E+01
 -1       107 3.94496E+01
 -1       108 3.89896E+01
 -1       109 3.75288E+01
 -1       110 3.56473E+01
 -1       111 3.72774E+01
 -1       112 4.10540E+01
 -1       113 3.92196E+01
 -1       114 3.82592E+01
 -1       115 3.65880E+01
 -1       116 3.50131E+01
 -1       117 2.70091E+01
 -1       118 1.42465E+01
 -1       119 1.42395E+01
 -1       120 1.17546E+01
 -1       121 1.15937E+01
 -1       122 1.10301E+01
 -1       123 9.94612E+00
 -1       124 1.01346E+01
 -1       125 2.81620E+01
 -1       126 2.74190E+01
 -1       127 2.64996E+01
 -1       128 1.24006E+01
 -1       129 1.47325E+01
 -1       130 2.17890E+01
 -1       131 2.82700E+01
 -1       132 1.43161E+01
 -1       133 1.42430E+01
 -1       134 1.29971E+01
 -1       135 1.16741E+01
 -1       136 1.13119E+01
 -1       137 1.04881E+01
 -1       138 1.00403E+01
 -1       139 1.91483E+01
 -1       140 2.77905E+01
 -1       141 2.69593E+01
 -1       142 1.94501E+01
 -1       143 1.35665E+01
 -1       144 1.82608E+01
 -1       145 2.50295E+01
 -1       146 2.70091E+01
 -1       147 2.43823E+01
 -1       148 4.26583E+01
 -1       149 3.94496E+01
 -1       150 3.89896E+01
 -1       151 3.75288E+01
 -1       152 3.43789E+01
 -1       153 3.72774E+01
 -1       154 4.10540E+01
 -1       155 3.92196E+01
 -1       156 3.82592E+01
 -1       157 3.59538E+01
 -1       158 2.43823E+01
 -1       159 2.91889E+01
 -1       160 2.59519E+01
 -1       161 1.74184E+01
 -1       162 2.37888E+01
 -1       163 2.20717E+01
 -1       164 2.64106E+01
 -1       165 2.75704E+01
 -1       166 2.16852E+01
 -1       167 2.06036E+01
 -1       168 2.29302E+01
 -1       169 2.39099E+01
 -1       170 3.04948E+01
 -1       171 3.04995E+01
 -1       172 3.03178E+01
 -1       173 3.01929E+01
 -1       174 3.02537E+01
 -1       175 3.01320E+01
 -1       176 3.05398E+01
 -1       177 2.98592E+01
 -1       178 3.05575E+01
 -1       179 3.01487E+01
 -1       180 3.10895E+01
 -1       181 3.03964E+01
 -1       182 3.06086E+01
 -1       183 3.06086E+01
 -1       184 3.03505E+01
 -1       185 3.03157E+01
 -1       186 3.05212E+01
 -1       187 3.09156E+01
 -1       188 3.03265E+01
 -1       189 3.02548E+01
 -1       190 3.04653E+01
 -1       191 3.07403E+01
 -1       192 3.04653E+01
 -1       193 3.01540E+01
 -1       194 3.04019E+01
 -1       195 3.07020E+01
 -1       196 3.05058E+01
 -1       197 3.05212E+01
 -1       198 3.06368E+01
 -1       199 3.01817E+01
 -1       200 3.03505E+01
 -1       201 3.21074E+01
 -1       202 3.02147E+01
 -1       203 3.03930E+01
 -1       204 3.13025E+01
 -1       205 3.21074E+01
 -1       206 3.01614E+01
 -1       207 3.04630E+01
 -1       208 3.03930E+01
 -1       209 3.02581E+01
 -1       210 3.03782E+01
 -1       211 3.03526E+01
 -1       212 2.97374E+01
 -1       213 3.11146E+01
 -1       214 3.03782E+01
 -1       215 3.08615E+01
 -1       216 3.25911E+01
 -1       217 3.25457E+01
 -1       218 3.07425E+01
 -1       219 3.13563E+01
 -1       220 3.09156E+01
 -1       221 3.13563E+01
 -1       222 3.09156E+01
 -1       223 3.06368E+01
 -1       224 3.06368E+01
 -1       225 3.11146E+01
 -1       226 3.07020E+01
 -1       227 3.07020E+01
 -1       228 2.97345E+01
 -1       229 2.98066E+01
 -1       230 3.22980E+01
 -1       231 3.18139E+01
 -1       232 2.98193E+01
 -1       233 2.99642E+01
 -1       234 3.04948E+01
 -1       235 3.03225E+01
 -1       236 3.04621E+01
 -1       237 3.07403E+01
 -1       238 3.05810E+01
 -1       239 2.94807E+01
 -1       240 3.05810E+01
 -1       241 2.94682E+01
 -1       242 3.13025E+01
 -1       243 3.13025E+01
 -1       244 3.04630E+01
 -1       245 3.04630E+01
 -1       246 3.16692E+01
 -1       247 3.03794E+01
 -1       248 2.96769E+01
 -1       249 2.91455E+01
 -1       250 3.05810E+01
 -1       251 3.00642E+01
 -1       252 3.00642E+01
 -1       253 3.01089E+01
 -1       254 4.26583E+01
 -1       255 2.91889E+01
 -1       256 2.76442E+01
 -1       257 2.97345E+01
 -1       258 2.99464E+01
 -1       259 2.93021E+01
 -1       260 3.07964E+01
 -1       261 2.89350E+01
 -1       262 3.20775E+01
 -1       263 3.06457E+01
 -1       264 3.02940E+01
 -1       265 3.01825E+01
 -1       266 3.24787E+01
 -1       267 3.25113E+01
 -1       268 3.04049E+01
 -1       269 3.05152E+01
 -1       270 3.25308E+01
 -1       271 3.27923E+01
 -1       272 3.04423E+01
 -1       273 3.02595E+01
 -1       274 3.25911E+01
 -1       275 3.28139E+01
 -1       276 3.03784E+01
 -1       277 3.01121E+01
 -1       278 3.04892E+01
 -1       279 3.41734E+01
 -1       280 3.09142E+01
 -1       281 3.22459E+01
 -1       282 3.03954E+01
 -1       283 3.21243E+01
 -1       284 3.07964E+01
 -1       285 3.31847E+01
 -1       286 3.25778E+01
 -1       287 3.23916E+01
 -1       288 3.27498E+01
 -1       289 3.25913E+01
 -1       290 3.24837E+01
 -1       291 3.28281E+01
 -1       292 3.03178E+01
 -1       293 3.01992E+01
 -1       294 3.15711E+01
 -1       295 3.03068E+01
 -1       296 2.98967E+01
 -1       297 3.03598E+01
 -1       298 3.56473E+01
 -1       299 3.02477E+01
 -1       300 2.82248E+01
 -1       301 3.02907E+01
 -1       302 3.03018E+01
 -1       303 3.04294E+01
 -1       304 2.98193E+01
 -1       305 3.01821E+01
 -1       306 3.04064E+01
 -1       307 3.05152E+01
 -1       308 3.00337E+01
 -1       309 3.08656E+01
 -1       310 3.75288E+01
 -1       311 3.02299E+01
 -1       312 3.45286E+01
 -1       313 3.01056E+01
 -1       314 3.03964E+01
 -1       315 3.01115E+01
 -1       316 3.01066E+01
 -1       317 3.01402E+01
 -1       318 3.00846E+01
 -1       319 3.70073E+01
 -1       320 3.01331E+01
 -1       321 3.01331E+01
 -1       322 3.00995E+01
 -1       323 3.01350E+01
 -1       324 3.05575E+01
 -1       325 3.01825E+01
 -1       326 3.01091E+01
 -1       327 3.27507E+01
 -1       328 3.00944E+01
 -1       329 3.02581E+01
 -1       330 3.02537E+01
 -1       331 3.02532E+01
 -1       332 3.74521E+01
 -1       333 2.70257E+01
 -1       334 2.60077E+01
 -1       335 2.82474E+01
 -1       336 2.82474E+01
 -1       337 3.40965E+01
 -1       338 3.50131E+01
 -1       339 3.56473E+01
 -1       340 3.22459E+01
 -1       341 3.32097E+01
 -1       342 3.74521E+01
 -1       343 4.26583E+01
 -1       344 3.74521E+01
 -1       345 3.41734E+01
 -1       346 3.41734E+01
 -1       347 3.32097E+01
 -1       348 3.36791E+01
 -1       349 3.31847E+01
 -1       350 3.36791E+01
 -1       351 3.29677E+01
 -1       352 3.27507E+01
 -1       353 3.29677E+01
 -1       354 3.19346E+01
 -1       355 3.21609E+01
 -1       356 3.21609E+01
 -1       357 3.22980E+01
 -1       358 3.22980E+01
 -1       359 3.19346E+01
 -1       360 3.19691E+01
 -1       361 3.20560E+01
 -1       362 3.20560E+01
 -1       363 3.21243E+01
 -1       364 3.21243E+01
 -1       365 3.13850E+01
 -1       366 3.12298E+01
 -1       367 3.13850E+01
 -1       368 3.22806E+01
 -1       369 3.21009E+01
 -1       370 3.21009E+01
 -1       371 3.26559E+01
 -1       372 3.24837E+01
 -1       373 3.22806E+01
 -1       374 3.28281E+01
 -1       375 3.28281E+01
 -1       376 3.26559E+01
 -1       377 3.28210E+01
 -1       378 3.27379E+01
 -1       379 3.28210E+01
 -1       380 3.26704E+01
 -1       381 3.26265E+01
 -1       382 3.27025E+01
 -1       383 3.27498E+01
 -1       384 3.27498E+01
 -1       385 3.26704E+01
 -1       386 3.26918E+01
 -1       387 3.26705E+01
 -1       388 3.26705E+01
 -1       389 3.27923E+01
 -1       390 3.27923E+01
 -1       391 3.26918E+01
 -1       392 3.25543E+01
 -1       393 3.26616E+01
 -1       394 3.26616E+01
 -1       395 3.25778E+01
 -1       396 3.25778E+01
 -1       397 3.25543E+01
 -1       398 3.24514E+01
 -1       399 3.24847E+01
 -1       400 3.24847E+01
 -1       401 3.25113E+01
 -1       402 3.25113E+01
 -1       403 3.24514E+01
 -1       404 3.24787E+01
 -1       405 3.24950E+01
 -1       406 3.24950E+01
 -1       407 3.14891E+01
 -1       408 3.04995E+01
 -1       409 3.14867E+01
 -1       410 3.04971E+01
 -1       411 3.14867E+01
 -1       412 3.15453E+01
 -1       413 3.25911E+01
 -1       414 3.25911E+01
 -1       415 3.14568E+01
 -1       416 3.04110E+01
 -1       417 3.14568E+01
 -1       418 3.17263E+01
 -1       419 3.08615E+01
 -1       420 3.17263E+01
 -1       421 2.97221E+01
 -1       422 3.07095E+01
 -1       423 3.07095E+01
 -1       424 3.07964E+01
 -1       425 2.98415E+01
 -1       426 3.06770E+01
 -1       427 2.89350E+01
 -1       428 2.98657E+01
 -1       429 3.07964E+01
 -1       430 2.98657E+01
 -1       431 3.07964E+01
 -1       432 2.90620E+01
 -1       433 2.71527E+01
 -1       434 2.90620E+01
 -1       435 2.77690E+01
 -1       436 2.45556E+01
 -1       437 2.82066E+01
 -1       438 2.69967E+01
 -1       439 2.88542E+01
 -1       440 2.84166E+01
 -1       441 2.48140E+01
 -1       442 2.71858E+01
 -1       443 3.03226E+01
 -1       444 2.60077E+01
 -1       445 2.94029E+01
 -1       446 3.25457E+01
 -1       447 3.25457E+01
 -1       448 3.40965E+01
 -1       449 3.21074E+01
 -1       450 3.23265E+01
 -1       451 3.23265E+01
 -1       452 3.16692E+01
 -1       453 3.18883E+01
 -1       454 3.21074E+01
 -1       455 3.21074E+01
 -1       456 3.18883E+01
 -1       457 3.00002E+01
 -1       458 3.10661E+01
 -1       459 3.10661E+01
 -1       460 3.04199E+01
 -1       461 3.04199E+01
 -1       462 3.08828E+01
 -1       463 2.92077E+01
 -1       464 2.99997E+01
 -1       465 3.08823E+01
 -1       466 2.89335E+01
 -1       467 2.93277E+01
 -1       468 3.05821E+01
 -1       469 2.81274E+01
 -1       470 2.89009E+01
 -1       471 3.06694E+01
 -1       472 2.76585E+01
 -1       473 2.82668E+01
 -1       474 3.07762E+01
 -1       475 3.02188E+01
 -1       476 2.78789E+01
 -1       477 3.11360E+01
 -1       478 2.58783E+01
 -1       479 2.93791E+01
 -1       480 3.12355E+01
 -1       481 3.00979E+01
 -1       482 3.03958E+01
 -1       483 2.91455E+01
 -1       484 2.56126E+01
 -1       485 2.94112E+01
 -1       486 2.88691E+01
 -1       487 2.93068E+01
 -1       488 2.94744E+01
 -1       489 2.93131E+01
 -1       490 2.93131E+01
 -1       491 2.88465E+01
 -1       492 4.10540E+01
 -1       493 3.67591E+01
 -1       494 3.69891E+01
 -1       495 3.63836E+01
 -1       496 3.47793E+01
 -1       497 3.23187E+01
 -1       498 3.82592E+01
 -1       499 3.75288E+01
 -1       500 3.79984E+01
 -1       501 3.72680E+01
 -1       502 3.57679E+01
 -1       503 3.65880E+01
 -1       504 3.65880E+01
 -1       505 3.04971E+01
 -1       506 3.04948E+01
 -1       507 3.01957E+01
 -1       508 3.01957E+01
 -1       509 3.14418E+01
 -1       510 3.04498E+01
 -1       511 3.01508E+01
 -1       512 3.04087E+01
 -1       513 3.02858E+01
 -1       514 3.02233E+01
 -1       515 3.02553E+01
 -1       516 3.02238E+01
 -1       517 3.02863E+01
 -1       518 3.02858E+01
 -1       519 3.03178E+01
 -1       520 3.03621E+01
 -1       521 3.03306E+01
 -1       522 3.03621E+01
 -1       523 3.01929E+01
 -1       524 3.01624E+01
 -1       525 3.02413E+01
 -1       526 3.02717E+01
 -1       527 3.03331E+01
 -1       528 3.02543E+01
 -1       529 3.02852E+01
 -1       530 3.02537E+01
 -1       531 3.01929E+01
 -1       532 3.03123E+01
 -1       533 3.02803E+01
 -1       534 3.02803E+01
 -1       535 3.01734E+01
 -1       536 3.02826E+01
 -1       537 3.02551E+01
 -1       538 3.02965E+01
 -1       539 3.03160E+01
 -1       540 3.05486E+01
 -1       541 3.02083E+01
 -1       542 3.01995E+01
 -1       543 3.08146E+01
 -1       544 3.04743E+01
 -1       545 3.07006E+01
 -1       546 3.07095E+01
 -1       547 3.03443E+01
 -1       548 3.06191E+01
 -1       549 3.13699E+01
 -1       550 3.15654E+01
 -1       551 2.95806E+01
 -1       552 2.99298E+01
 -1       553 2.98329E+01
 -1       554 3.04480E+01
 -1       555 2.99028E+01
 -1       556 2.98765E+01
 -1       557 2.96243E+01
 -1       558 3.05575E+01
 -1       559 3.06770E+01
 -1       560 3.00492E+01
 -1       561 3.04544E+01
 -1       562 2.99840E+01
 -1       563 3.02356E+01
 -1       564 3.03217E+01
 -1       565 3.01571E+01
 -1       566 2.97706E+01
 -1       567 3.04120E+01
 -1       568 2.98493E+01
 -1       569 3.05268E+01
 -1       570 3.04544E+01
 -1       571 2.98918E+01
 -1       572 2.98193E+01
 -1       573 3.05025E+01
 -1       574 3.06086E+01
 -1       575 3.05025E+01
 -1       576 3.04675E+01
 -1       577 3.03615E+01
 -1       578 3.01079E+01
 -1       579 3.02140E+01
 -1       580 3.03615E+01
 -1       581 3.03964E+01
 -1       582 2.99265E+01
 -1       583 3.02151E+01
 -1       584 3.02745E+01
 -1       585 3.04558E+01
 -1       586 3.04558E+01
 -1       587 3.08616E+01
 -1       588 3.08616E+01
 -1       589 3.09825E+01
 -1       590 3.08414E+01
 -1       591 3.11146E+01
 -1       592 3.08616E+01
 -1       593 3.12355E+01
 -1       594 3.04260E+01
 -1       595 3.01730E+01
 -1       596 3.02864E+01
 -1       597 2.98508E+01
 -1       598 3.05291E+01
 -1       599 3.05465E+01
 -1       600 3.02826E+01
 -1       601 3.03505E+01
 -1       602 3.05465E+01
 -1       603 3.02844E+01
 -1       604 3.02540E+01
 -1       605 3.08041E+01
 -1       606 3.05906E+01
 -1       607 3.41972E+01
 -1       608 3.39222E+01
 -1       609 3.36615E+01
 -1       610 3.36303E+01
 -1       611 3.04238E+01
 -1       612 3.06210E+01
 -1       613 3.07184E+01
 -1       614 3.07184E+01
 -1       615 3.05212E+01
 -1       616 3.04588E+01
 -1       617 3.03514E+01
 -1       618 3.03514E+01
 -1       619 3.03139E+01
 -1       620 3.01441E+01
 -1       621 3.02510E+01
 -1       622 3.03134E+01
 -1       623 3.01061E+01
 -1       624 3.11360E+01
 -1       625 3.09156E+01
 -1       626 3.07184E+01
 -1       627 3.11360E+01
 -1       628 3.09156E+01
 -1       629 3.09156E+01
 -1       630 3.03720E+01
 -1       631 3.03251E+01
 -1       632 3.04423E+01
 -1       633 3.04478E+01
 -1       634 3.03243E+01
 -1       635 3.04653E+01
 -1       636 3.06028E+01
 -1       637 3.06028E+01
 -1       638 3.04471E+01
 -1       639 3.03096E+01
 -1       640 3.05837E+01
 -1       641 3.05837E+01
 -1       642 3.02780E+01
 -1       643 3.04336E+01
 -1       644 3.05520E+01
 -1       645 3.05837E+01
 -1       646 3.07020E+01
 -1       647 3.06028E+01
 -1       648 3.07403E+01
 -1       649 3.04376E+01
 -1       650 3.01445E+01
 -1       651 3.05666E+01
 -1       652 3.10214E+01
 -1       653 3.08477E+01
 -1       654 3.02640E+01
 -1       655 3.10214E+01
 -1       656 3.05821E+01
 -1       657 3.04637E+01
 -1       658 3.06012E+01
 -1       659 3.02675E+01
 -1       660 3.01435E+01
 -1       661 3.01331E+01
 -1       662 3.01435E+01
 -1       663 3.01340E+01
 -1       664 3.04538E+01
 -1       665 3.06039E+01
 -1       666 3.02952E+01
 -1       667 3.02433E+01
 -1       668 3.01124E+01
 -1       669 3.02711E+01
 -1       670 3.01366E+01
 -1       671 3.06694E+01
 -1       672 3.05713E+01
 -1       673 3.06694E+01
 -1       674 3.07020E+01
 -1       675 3.07020E+01
 -1       676 3.05790E+01
 -1       677 3.05713E+01
 -1       678 3.05135E+01
 -1       679 3.03437E+01
 -1       680 3.06368E+01
 -1       681 3.01332E+01
 -1       682 3.07762E+01
 -1       683 3.07762E+01
 -1       684 3.06368E+01
 -1       685 3.06368E+01
 -1       686 3.01090E+01
 -1       687 3.01466E+01
 -1       688 3.00980E+01
 -1       689 3.11610E+01
 -1       690 3.12290E+01
 -1       691 3.12290E+01
 -1       692 3.14481E+01
 -1       693 3.16441E+01
 -1       694 3.12434E+01
 -1       695 3.02970E+01
 -1       696 3.10243E+01
 -1       697 3.03788E+01
 -1       698 3.08477E+01
 -1       699 3.03930E+01
 -1       700 3.02772E+01
 -1       701 3.02772E+01
 -1       702 3.02510E+01
 -1       703 3.01352E+01
 -1       704 3.01173E+01
 -1       705 3.02463E+01
 -1       706 3.01043E+01
 -1       707 3.13025E+01
 -1       708 3.08477E+01
 -1       709 3.10214E+01
 -1       710 3.13025E+01
 -1       711 3.13025E+01
 -1       712 3.04280E+01
 -1       713 3.03122E+01
 -1       714 3.04078E+01
 -1       715 3.02570E+01
 -1       716 3.03054E+01
 -1       717 3.02098E+01
 -1       718 3.01458E+01
 -1       719 3.01719E+01
 -1       720 3.02203E+01
 -1       721 3.08828E+01
 -1       722 3.04630E+01
 -1       723 3.04078E+01
 -1       724 3.08828E+01
 -1       725 3.04630E+01
 -1       726 3.04630E+01
 -1       727 3.03054E+01
 -1       728 3.03654E+01
 -1       729 3.03182E+01
 -1       730 3.03782E+01
 -1       731 3.03182E+01
 -1       732 3.02581E+01
 -1       733 3.02559E+01
 -1       734 3.01763E+01
 -1       735 3.01763E+01
 -1       736 3.01741E+01
 -1       737 3.04206E+01
 -1       738 3.03788E+01
 -1       739 3.10661E+01
 -1       740 3.10237E+01
 -1       741 2.97072E+01
 -1       742 3.03958E+01
 -1       743 2.97360E+01
 -1       744 2.98493E+01
 -1       745 2.94414E+01
 -1       746 2.94400E+01
 -1       747 3.17056E+01
 -1       748 3.32565E+01
 -1       749 3.13563E+01
 -1       750 2.98993E+01
 -1       751 2.99354E+01
 -1       752 2.97345E+01
 -1       753 3.03226E+01
 -1       754 3.01578E+01
 -1       755 3.01578E+01
 -1       756 3.00053E+01
 -1       757 3.12486E+01
 -1       758 3.10065E+01
 -1       759 3.08852E+01
 -1       760 3.10219E+01
 -1       761 3.04378E+01
 -1       762 3.02146E+01
 -1       763 2.99265E+01
 -1       764 2.99652E+01
 -1       765 3.02642E+01
 -1       766 3.05810E+01
 -1       767 3.00309E+01
 -1       768 3.00309E+01
 -1       769 2.96076E+01
 -1       770 3.05810E+01
 -1       771 3.05810E+01
 -1       772 3.03226E+01
 -1       773 3.00246E+01
 -1       774 2.94029E+01
 -1       775 3.00642E+01
 -1       776 3.00053E+01
 -1       777 2.87953E+01
 -1       778 3.67862E+01
 -1       779 3.05115E+01
 -1       780 3.06548E+01
 -1       781 3.02521E+01
 -1       782 3.24620E+01
 -1       783 3.15801E+01
 -1       784 2.82896E+01
 -1       785 2.84731E+01
 -1       786 2.92203E+01
 -1       787 3.00492E+01
 -1       788 3.11857E+01
 -1       789 3.04699E+01
 -1       790 3.13616E+01
 -1       791 3.13889E+01
 -1       792 3.04141E+01
 -1       793 3.02383E+01
 -1       794 3.02062E+01
 -1       795 3.02383E+01
 -1       796 3.01825E+01
 -1       797 3.13329E+01
 -1       798 3.02381E+01
 -1       799 3.01823E+01
 -1       800 3.01622E+01
 -1       801 3.01385E+01
 -1       802 3.02203E+01
 -1       803 3.14581E+01
 -1       804 3.15133E+01
 -1       805 3.04601E+01
 -1       806 3.14355E+01
 -1       807 3.04375E+01
 -1       808 3.13757E+01
 -1       809 3.04601E+01
 -1       810 3.05152E+01
 -1       811 3.02060E+01
 -1       812 3.02327E+01
 -1       813 3.03104E+01
 -1       814 3.04558E+01
 -1       815 3.14865E+01
 -1       816 3.16173E+01
 -1       817 3.15101E+01
 -1       818 3.15259E+01
 -1       819 3.03509E+01
 -1       820 3.15415E+01
 -1       821 3.02751E+01
 -1       822 3.14410E+01
 -1       823 3.02769E+01
 -1       824 3.01855E+01
 -1       825 3.14127E+01
 -1       826 3.03450E+01
 -1       827 3.01796E+01
 -1       828 3.02154E+01
 -1       829 3.01999E+01
 -1       830 3.01721E+01
 -1       831 3.14847E+01
 -1       832 3.15961E+01
 -1       833 3.15641E+01
 -1       834 3.14630E+01
 -1       835 3.02452E+01
 -1       836 3.16217E+01
 -1       837 3.02707E+01
 -1       838 3.16288E+01
 -1       839 3.02557E+01
 -1       840 3.01226E+01
 -1       841 3.15258E+01
 -1       842 3.03401E+01
 -1       843 3.02174E+01
 -1       844 3.02645E+01
 -1       845 3.01058E+01
 -1       846 3.01236E+01
 -1       847 3.07017E+01
 -1       848 3.25438E+01
 -1       849 3.23313E+01
 -1       850 3.18370E+01
 -1       851 3.17956E+01
 -1       852 3.23909E+01
 -1       853 3.15786E+01
 -1       854 3.14688E+01
 -1       855 3.03037E+01
 -1       856 3.15202E+01
 -1       857 3.02962E+01
 -1       858 3.14566E+01
 -1       859 3.03058E+01
 -1       860 3.09444E+01
 -1       861 3.02585E+01
 -1       862 3.02530E+01
 -1       863 3.15342E+01
 -1       864 3.02684E+01
 -1       865 3.02418E+01
 -1       866 3.01771E+01
 -1       867 3.02332E+01
 -1       868 3.02174E+01
 -1       869 3.02119E+01
 -1       870 3.01456E+01
 -1       871 3.02692E+01
 -1       872 2.82700E+01
 -1       873 2.82700E+01
 -1       874 2.34657E+01
 -1       875 2.33961E+01
 -1       876 2.33961E+01
 -1       877 2.31734E+01
 -1       878 2.33926E+01
 -1       879 2.17119E+01
 -1       880 2.19310E+01
 -1       881 2.05655E+01
 -1       882 2.16315E+01
 -1       883 2.02837E+01
 -1       884 2.02837E+01
 -1       885 1.89497E+01
 -1       886 1.97417E+01
 -1       887 2.76635E+01
 -1       888 2.80577E+01
 -1       889 1.90440E+01
 -1       890 2.65185E+01
 -1       891 2.72920E+01
 -1       892 2.59102E+01
 -1       893 2.77904E+01
 -1       894 2.54505E+01
 -1       895 1.72402E+01
 -1       896 2.07409E+01
 -1       897 2.19390E+01
 -1       898 1.84061E+01
 -1       899 2.50295E+01
 -1       900 2.54673E+01
 -1       901 2.99464E+01
 -1       902 2.90268E+01
 -1       903 3.00642E+01
 -1       904 3.05152E+01
 -1       905 3.03046E+01
 -1       906 3.03964E+01
 -1       907 3.13025E+01
 -1       908 3.07403E+01
 -1       909 3.03930E+01
 -1       910 3.00846E+01
 -1       911 3.01550E+01
 -1       912 3.01795E+01
 -1       913 2.97377E+01
 -1       914 3.06086E+01
 -1       915 2.99642E+01
 -1       916 3.03505E+01
 -1       917 3.03269E+01
 -1       918 3.21074E+01
 -1       919 3.03675E+01
 -1       920 3.00337E+01
 -1       921 3.14139E+01
 -1       922 3.05212E+01
 -1       923 3.05212E+01
 -1       924 3.03265E+01
 -1       925 3.01350E+01
 -1       926 3.01350E+01
 -1       927 3.01817E+01
 -1       928 3.04985E+01
 -1       929 3.04644E+01
 -1       930 3.00892E+01
 -1       931 3.01424E+01
 -1       932 3.05058E+01
 -1       933 3.05058E+01
 -1       934 3.04560E+01
 -1       935 3.04630E+01
 -1       936 3.01614E+01
 -1       937 3.01540E+01
 -1       938 3.04498E+01
 -1       939 3.04560E+01
 -1       940 3.01614E+01
 -1       941 3.07964E+01
 -1       942 2.91889E+01
 -1       943 3.03782E+01
 -1       944 3.03782E+01
 -1       945 3.03526E+01
 -1       946 3.04621E+01
 -1       947 3.02199E+01
 -1       948 3.01691E+01
 -1       949 2.92165E+01
 -1       950 3.00666E+01
 -1       951 3.00666E+01
 -1       952 3.04653E+01
 -1       953 3.07020E+01
 -1       954 2.99125E+01
 -1       955 3.05058E+01
 -1       956 3.06368E+01
 -1       957 3.05590E+01
 -1       958 3.02244E+01
 -1       959 3.22980E+01
 -1       960 3.03068E+01
 -1       961 2.98193E+01
 -1       962 2.98967E+01
 -1       963 3.00337E+01
 -1       964 3.05053E+01
 -1       965 3.13563E+01
 -1       966 3.05173E+01
 -1       967 3.00079E+01
 -1       968 3.11146E+01
 -1       969 3.13563E+01
 -1       970 3.18139E+01
 -1       971 3.06086E+01
 -1       972 3.11146E+01
 -1       973 2.96731E+01
 -1       974 2.94807E+01
 -1       975 2.94682E+01
 -1       976 3.05152E+01
 -1       977 2.18676E+01
 -1       978 3.04434E+01
 -1       979 3.01089E+01
 -1       980 3.02532E+01
 -1       981 3.22459E+01
 -1       982 3.94496E+01
 -1       983 2.99673E+01
 -1       984 3.01132E+01
 -1       985 3.01817E+01
 -1       986 3.01821E+01
 -1       987 3.24837E+01
 -1       988 3.20775E+01
 -1       989 3.02548E+01
 -1       990 3.03178E+01
 -1       991 3.00635E+01
 -1       992 3.01115E+01
 -1       993 3.01402E+01
 -1       994 2.99625E+01
 -1       995 3.01313E+01
 -1       996 3.01540E+01
 -1       997 3.03505E+01
 -1       998 3.02194E+01
 -1       999 3.08656E+01
 -1      1000 3.12339E+01
 -1      1001 3.25457E+01
 -1      1002 3.05810E+01
 -1      1003 2.82700E+01
 -1      1004 2.98204E+01
 -1      1005 3.89896E+01
 -1      1006 3.03868E+01
 -1      1007 3.16331E+01
 -1      1008 2.99642E+01
 -1      1009 3.01378E+01
 -1      1010 2.95374E+01
 -1      1011 3.16692E+01
 -1      1012 3.03794E+01
 -1      1013 3.01825E+01
 -1      1014 3.02940E+01
 -1      1015 3.00649E+01
 -1      1016 3.10895E+01
 -1      1017 3.03868E+01
 -1      1018 2.63491E+01
 -1      1019 2.36322E+01
 -1      1020 3.04064E+01
 -1      1021 2.91455E+01
 -1      1022 3.10895E+01
 -1      1023 2.98592E+01
 -1      1024 3.05398E+01
 -1      1025 3.15711E+01
 -1      1026 2.99464E+01
 -1      1027 2.77690E+01
 -1      1028 2.93021E+01
 -1      1029 2.88866E+01
 -1      1030 3.05575E+01
 -1      1031 3.04995E+01
 -1      1032 3.24787E+01
 -1      1033 3.04948E+01
 -1      1034 3.23916E+01
 -1      1035 3.25113E+01
 -1      1036 3.25308E+01
 -1      1037 3.25778E+01
 -1      1038 3.01066E+01
 -1      1039 3.01487E+01
 -1      1040 3.25913E+01
 -1      1041 3.27923E+01
 -1      1042 3.25441E+01
 -1      1043 3.27498E+01
 -1      1044 3.03225E+01
 -1      1045 3.28281E+01
 -1      1046 3.26619E+01
 -1      1047 3.01274E+01
 -1      1048 2.97229E+01
 -1      1049 3.03598E+01
 -1      1050 3.02477E+01
 -1      1051 3.02595E+01
 -1      1052 3.03018E+01
 -1      1053 2.62851E+01
 -1      1054 3.25911E+01
 -1      1055 3.03068E+01
 -1      1056 3.02299E+01
 -1      1057 3.02581E+01
 -1      1058 3.08615E+01
 -1      1059 3.01351E+01
 -1      1060 3.27507E+01
 -1      1061 3.09142E+01
 -1      1062 3.31847E+01
 -1      1063 3.41734E+01
 -1      1064 3.21243E+01
 -1      1065 3.02537E+01
 -1      1066 3.10895E+01
 -1      1067 3.74521E+01
 -1      1068 2.62836E+01
 -1      1069 2.36322E+01
 -1      1070 2.64106E+01
 -1      1071 2.70091E+01
 -1      1072 2.82700E+01
 -1      1073 2.51708E+01
 -1      1074 2.28098E+01
 -1      1075 2.27402E+01
 -1      1076 3.28064E+01
 -1      1077 3.32097E+01
 -1      1078 3.22459E+01
 -1      1079 3.74521E+01
 -1      1080 3.41734E+01
 -1      1081 3.41734E+01
 -1      1082 3.15801E+01
 -1      1083 3.25438E+01
 -1      1084 3.25438E+01
 -1      1085 3.31847E+01
 -1      1086 3.36791E+01
 -1      1087 3.36791E+01
 -1      1088 3.29677E+01
 -1      1089 3.27507E+01
 -1      1090 3.29677E+01
 -1      1091 3.19346E+01
 -1      1092 3.21609E+01
 -1      1093 3.14429E+01
 -1      1094 3.08531E+01
 -1      1095 3.14429E+01
 -1      1096 3.22980E+01
 -1      1097 3.22980E+01
 -1      1098 3.13024E+01
 -1      1099 3.13024E+01
 -1      1100 3.09389E+01
 -1      1101 3.19691E+01
 -1      1102 3.20560E+01
 -1      1103 3.20560E+01
 -1      1104 3.21243E+01
 -1      1105 3.21243E+01
 -1      1106 3.19691E+01
 -1      1107 3.22806E+01
 -1      1108 3.21009E+01
 -1      1109 3.21009E+01
 -1      1110 3.26559E+01
 -1      1111 3.24837E+01
 -1      1112 3.22806E+01
 -1      1113 3.28281E+01
 -1      1114 3.28281E+01
 -1      1115 3.26559E+01
 -1      1116 3.26619E+01
 -1      1117 3.27450E+01
 -1      1118 3.27450E+01
 -1      1119 3.26469E+01
 -1      1120 3.26030E+01
 -1      1121 3.26030E+01
 -1      1122 3.27498E+01
 -1      1123 3.27498E+01
 -1      1124 3.26469E+01
 -1      1125 3.26918E+01
 -1      1126 3.26705E+01
 -1      1127 3.26705E+01
 -1      1128 3.27923E+01
 -1      1129 3.27923E+01
 -1      1130 3.26918E+01
 -1      1131 3.25543E+01
 -1      1132 3.26616E+01
 -1      1133 3.26616E+01
 -1      1134 3.25778E+01
 -1      1135 3.25778E+01
 -1      1136 3.25543E+01
 -1      1137 3.24514E+01
 -1      1138 3.24847E+01
 -1      1139 3.24847E+01
 -1      1140 3.25113E+01
 -1      1141 3.25113E+01
 -1      1142 3.24514E+01
 -1      1143 3.24787E+01
 -1      1144 3.24950E+01
 -1      1145 3.24950E+01
 -1      1146 3.04995E+01
 -1      1147 3.14891E+01
 -1      1148 3.14891E+01
 -1      1149 3.14568E+01
 -1      1150 3.04110E+01
 -1      1151 3.04971E+01
 -1      1152 3.04971E+01
 -1      1153 3.04087E+01
 -1      1154 3.25911E+01
 -1      1155 3.25911E+01
 -1      1156 3.14568E+01
 -1      1157 3.08615E+01
 -1      1158 3.17263E+01
 -1      1159 3.17263E+01
 -1      1160 2.88866E+01
 -1      1161 2.98741E+01
 -1      1162 2.97221E+01
 -1      1163 3.07095E+01
 -1      1164 3.07095E+01
 -1      1165 3.07964E+01
 -1      1166 2.98415E+01
 -1      1167 2.98415E+01
 -1      1168 2.90620E+01
 -1      1169 2.99927E+01
 -1      1170 2.99927E+01
 -1      1171 2.64106E+01
 -1      1172 2.33961E+01
 -1      1173 2.33926E+01
 -1      1174 3.18898E+01
 -1      1175 2.28267E+01
 -1      1176 2.15842E+01
 -1      1177 3.19798E+01
 -1      1178 2.17119E+01
 -1      1179 2.16315E+01
 -1      1180 2.19310E+01
 -1      1181 3.17606E+01
 -1      1182 3.18883E+01
 -1      1183 2.10249E+01
 -1      1184 2.07430E+01
 -1      1185 3.10626E+01
 -1      1186 2.02837E+01
 -1      1187 1.97417E+01
 -1      1188 2.07466E+01
 -1      1189 3.04595E+01
 -1      1190 3.00002E+01
 -1      1191 1.95813E+01
 -1      1192 1.96756E+01
 -1      1193 2.93770E+01
 -1      1194 2.00235E+01
 -1      1195 2.90373E+01
 -1      1196 2.95645E+01
 -1      1197 2.93605E+01
 -1      1198 2.89890E+01
 -1      1199 2.94320E+01
 -1      1200 3.03073E+01
 -1      1201 3.06305E+01
 -1      1202 2.89681E+01
 -1      1203 2.85084E+01
 -1      1204 2.90279E+01
 -1      1205 3.05979E+01
 -1      1206 3.05770E+01
 -1      1207 2.89280E+01
 -1      1208 2.18785E+01
 -1      1209 2.89280E+01
 -1      1210 3.09368E+01
 -1      1211 3.13563E+01
 -1      1212 2.17576E+01
 -1      1213 2.29235E+01
 -1      1214 2.17576E+01
 -1      1215 3.12355E+01
 -1      1216 3.11146E+01
 -1      1217 2.19390E+01
 -1      1218 2.54673E+01
 -1      1219 2.22028E+01
 -1      1220 3.03938E+01
 -1      1221 2.94093E+01
 -1      1222 2.18283E+01
 -1      1223 2.50688E+01
 -1      1224 2.55066E+01
 -1      1225 2.88691E+01
 -1      1226 2.56679E+01
 -1      1227 2.88691E+01
 -1      1228 3.94496E+01
 -1      1229 4.10540E+01
 -1      1230 3.58478E+01
 -1      1231 3.92196E+01
 -1      1232 3.89896E+01
 -1      1233 3.92196E+01
 -1      1234 3.39578E+01
 -1      1235 3.46882E+01
 -1      1236 3.53113E+01
 -1      1237 3.53113E+01
 -1      1238 3.10100E+01
 -1      1239 3.43813E+01
 -1      1240 3.08103E+01
 -1      1241 2.61505E+01
 -1      1242 2.77690E+01
 -1      1243 2.77690E+01
 -1      1244 2.91889E+01
 -1      1245 2.61185E+01
 -1      1246 2.18518E+01
 -1      1247 2.63171E+01
 -1      1248 2.37413E+01
 -1      1249 2.69265E+01
 -1      1250 2.81746E+01
 -1      1251 2.60294E+01
 -1      1252 3.03226E+01
 -1      1253 2.71849E+01
 -1      1254 2.94255E+01
 -1      1255 2.94866E+01
 -1      1256 2.95455E+01
 -1      1257 3.00053E+01
 -1      1258 2.98834E+01
 -1      1259 2.94236E+01
 -1      1260 3.00053E+01
 -1      1261 2.99464E+01
 -1      1262 3.04549E+01
 -1      1263 3.05180E+01
 -1      1264 3.04743E+01
 -1      1265 2.99028E+01
 -1      1266 2.99028E+01
 -1      1267 2.98039E+01
 -1      1268 2.92537E+01
 -1      1269 2.94744E+01
 -1      1270 2.92475E+01
 -1      1271 2.96505E+01
 -1      1272 3.00246E+01
 -1      1273 2.81158E+01
 -1      1274 3.04099E+01
 -1      1275 3.03505E+01
 -1      1276 3.04558E+01
 -1      1277 3.05152E+01
 -1      1278 3.04099E+01
 -1      1279 3.02151E+01
 -1      1280 3.02745E+01
 -1      1281 3.01191E+01
 -1      1282 2.98783E+01
 -1      1283 3.01191E+01
 -1      1284 3.03155E+01
 -1      1285 3.03615E+01
 -1      1286 3.04129E+01
 -1      1287 3.04238E+01
 -1      1288 3.02443E+01
 -1      1289 3.01359E+01
 -1      1290 3.04375E+01
 -1      1291 3.03322E+01
 -1      1292 3.01636E+01
 -1      1293 3.03820E+01
 -1      1294 3.02006E+01
 -1      1295 3.02151E+01
 -1      1296 3.03470E+01
 -1      1297 3.00337E+01
 -1      1298 3.10214E+01
 -1      1299 3.05666E+01
 -1      1300 3.08477E+01
 -1      1301 3.08823E+01
 -1      1302 3.06012E+01
 -1      1303 3.02654E+01
 -1      1304 3.07201E+01
 -1      1305 3.02595E+01
 -1      1306 2.98393E+01
 -1      1307 3.04199E+01
 -1      1308 2.98376E+01
 -1      1309 3.04376E+01
 -1      1310 3.02640E+01
 -1      1311 3.01445E+01
 -1      1312 3.04471E+01
 -1      1313 3.05950E+01
 -1      1314 3.03019E+01
 -1      1315 3.04575E+01
 -1      1316 3.06028E+01
 -1      1317 3.04637E+01
 -1      1318 3.01121E+01
 -1      1319 3.02411E+01
 -1      1320 3.01253E+01
 -1      1321 3.02772E+01
 -1      1322 3.01496E+01
 -1      1323 3.01198E+01
 -1      1324 3.01673E+01
 -1      1325 3.01321E+01
 -1      1326 3.01060E+01
 -1      1327 3.01412E+01
 -1      1328 3.01344E+01
 -1      1329 3.00869E+01
 -1      1330 3.01098E+01
 -1      1331 3.01350E+01
 -1      1332 3.01098E+01
 -1      1333 3.01312E+01
 -1      1334 3.01686E+01
 -1      1335 3.01808E+01
 -1      1336 3.13194E+01
 -1      1337 3.13329E+01
 -1      1338 3.13056E+01
 -1      1339 3.01705E+01
 -1      1340 3.01253E+01
 -1      1341 3.01719E+01
 -1      1342 3.01810E+01
 -1      1343 3.01823E+01
 -1      1344 3.01732E+01
 -1      1345 3.02864E+01
 -1      1346 2.98509E+01
 -1      1347 2.98857E+01
 -1      1348 3.03211E+01
 -1      1349 3.04136E+01
 -1      1350 3.05268E+01
 -1      1351 2.97785E+01
 -1      1352 2.99265E+01
 -1      1353 3.04544E+01
 -1      1354 2.99642E+01
 -1      1355 3.02864E+01
 -1      1356 3.04881E+01
 -1      1357 3.06086E+01
 -1      1358 3.04881E+01
 -1      1359 3.02864E+01
 -1      1360 2.98923E+01
 -1      1361 2.98923E+01
 -1      1362 3.05268E+01
 -1      1363 3.10895E+01
 -1      1364 3.03387E+01
 -1      1365 3.12171E+01
 -1      1366 3.12290E+01
 -1      1367 3.03505E+01
 -1      1368 3.03387E+01
 -1      1369 3.03650E+01
 -1      1370 3.12434E+01
 -1      1371 3.02852E+01
 -1      1372 3.02598E+01
 -1      1373 3.01945E+01
 -1      1374 3.02196E+01
 -1      1375 3.02850E+01
 -1      1376 3.02743E+01
 -1      1377 3.02850E+01
 -1      1378 3.08704E+01
 -1      1379 3.14363E+01
 -1      1380 3.14481E+01
 -1      1381 3.10243E+01
 -1      1382 3.01672E+01
 -1      1383 3.01877E+01
 -1      1384 3.05612E+01
 -1      1385 3.07411E+01
 -1      1386 3.08616E+01
 -1      1387 2.99265E+01
 -1      1388 3.05212E+01
 -1      1389 3.04238E+01
 -1      1390 3.04928E+01
 -1      1391 3.04928E+01
 -1      1392 3.02159E+01
 -1      1393 3.02645E+01
 -1      1394 3.04848E+01
 -1      1395 3.05133E+01
 -1      1396 3.09308E+01
 -1      1397 3.09388E+01
 -1      1398 3.06821E+01
 -1      1399 3.01008E+01
 -1      1400 3.01008E+01
 -1      1401 3.01103E+01
 -1      1402 3.00666E+01
 -1      1403 3.01008E+01
 -1      1404 3.00970E+01
 -1      1405 3.03401E+01
 -1      1406 3.04815E+01
 -1      1407 3.03230E+01
 -1      1408 3.03437E+01
 -1      1409 3.05021E+01
 -1      1410 3.01817E+01
 -1      1411 3.03230E+01
 -1      1412 3.01226E+01
 -1      1413 3.02846E+01
 -1      1414 3.01226E+01
 -1      1415 3.05019E+01
 -1      1416 3.05058E+01
 -1      1417 3.05021E+01
 -1      1418 3.05713E+01
 -1      1419 3.05677E+01
 -1      1420 3.05710E+01
 -1      1421 3.00745E+01
 -1      1422 3.01614E+01
 -1      1423 3.03241E+01
 -1      1424 3.05058E+01
 -1      1425 3.03241E+01
 -1      1426 3.02961E+01
 -1      1427 3.04778E+01
 -1      1428 3.01413E+01
 -1      1429 3.03230E+01
 -1      1430 3.00524E+01
 -1      1431 3.02061E+01
 -1      1432 3.00514E+01
 -1      1433 3.05058E+01
 -1      1434 3.04855E+01
 -1      1435 3.05837E+01
 -1      1436 3.06039E+01
 -1      1437 3.06039E+01
 -1      1438 3.01019E+01
 -1      1439 3.04595E+01
 -1      1440 3.03122E+01
 -1      1441 3.03087E+01
 -1      1442 3.04560E+01
 -1      1443 3.02570E+01
 -1      1444 3.04043E+01
 -1      1445 3.10626E+01
 -1      1446 3.03654E+01
 -1      1447 3.04171E+01
 -1      1448 3.10237E+01
 -1      1449 3.03004E+01
 -1      1450 3.02570E+01
 -1      1451 3.01540E+01
 -1      1452 3.03019E+01
 -1      1453 3.01103E+01
 -1      1454 3.00582E+01
 -1      1455 3.02098E+01
 -1      1456 3.03054E+01
 -1      1457 3.02203E+01
 -1      1458 2.84790E+01
 -1      1459 2.92827E+01
 -1      1460 2.83278E+01
 -1      1461 2.70591E+01
 -1      1462 3.03782E+01
 -1      1463 3.03654E+01
 -1      1464 3.02737E+01
 -1      1465 3.02737E+01
 -1      1466 3.03182E+01
 -1      1467 3.03160E+01
 -1      1468 3.02114E+01
 -1      1469 3.03041E+01
 -1      1470 3.02440E+01
 -1      1471 3.02418E+01
 -1      1472 3.03788E+01
 -1      1473 3.01873E+01
 -1      1474 3.01889E+01
 -1      1475 3.02368E+01
 -1      1476 3.02373E+01
 -1      1477 3.02688E+01
 -1      1478 3.02863E+01
 -1      1479 3.02371E+01
 -1      1480 3.02633E+01
 -1      1481 3.03123E+01
 -1      1482 3.02803E+01
 -1      1483 3.01842E+01
 -1      1484 3.01842E+01
 -1      1485 3.02279E+01
 -1      1486 3.13053E+01
 -1      1487 3.13642E+01
 -1      1488 3.14229E+01
 -1      1489 3.13947E+01
 -1      1490 3.05324E+01
 -1      1491 3.05113E+01
 -1      1492 3.12612E+01
 -1      1493 3.02656E+01
 -1      1494 3.10191E+01
 -1      1495 3.02656E+01
 -1      1496 3.03068E+01
 -1      1497 3.01447E+01
 -1      1498 3.09394E+01
 -1      1499 3.01474E+01
 -1      1500 3.02272E+01
 -1      1501 3.02684E+01
 -1      1502 3.03123E+01
 -1      1503 3.02209E+01
 -1      1504 3.02264E+01
 -1      1505 2.98580E+01
 -1      1506 2.99652E+01
 -1      1507 2.99630E+01
 -1      1508 3.00017E+01
 -1      1509 3.05981E+01
 -1      1510 2.98098E+01
 -1      1511 3.03007E+01
 -1      1512 3.01957E+01
 -1      1513 3.01088E+01
 -1      1514 3.06821E+01
 -1      1515 3.08616E+01
 -1      1516 3.01795E+01
 -1      1517 3.10539E+01
 -1      1518 3.12092E+01
 -1      1519 3.01408E+01
 -1      1520 2.98186E+01
 -1      1521 2.95548E+01
 -1      1522 2.56742E+01
 -1      1523 2.93131E+01
 -1      1524 2.97224E+01
 -1      1525 3.14970E+01
 -1      1526 3.15133E+01
 -1      1527 3.11008E+01
 -1      1528 3.14355E+01
 -1      1529 3.02761E+01
 -1      1530 3.01811E+01
 -1      1531 3.03483E+01
 -1      1532 3.06788E+01
 -1      1533 3.05115E+01
 -1      1534 3.02540E+01
 -1      1535 3.03491E+01
 -1      1536 3.03306E+01
 -1      1537 3.04249E+01
 -1      1538 3.18141E+01
 -1      1539 3.17956E+01
 -1      1540 3.20495E+01
 -1      1541 3.09432E+01
 -1      1542 3.08710E+01
 -1      1543 3.47793E+01
 -1      1544 3.11774E+01
 -1      1545 3.45492E+01
 -1      1546 3.02363E+01
 -1      1547 3.03200E+01
 -1      1548 3.03031E+01
 -1      1549 3.10100E+01
 -1      1550 3.00402E+01
 -1      1551 3.01474E+01
 -1      1552 3.02365E+01
 -1      1553 3.01804E+01
 -1      1554 3.02147E+01
 -1      1555 3.12524E+01
 -1      1556 3.13455E+01
 -1      1557 3.13757E+01
 -1      1558 3.14127E+01
 -1      1559 3.01556E+01
 -1      1560 3.11298E+01
 -1      1561 3.02381E+01
 -1      1562 3.11857E+01
 -1      1563 3.02383E+01
 -1      1564 3.14778E+01
 -1      1565 3.03621E+01
 -1      1566 3.02707E+01
 -1      1567 3.00875E+01
 -1      1568 3.01258E+01
 -1      1569 3.01796E+01
 -1      1570 3.01855E+01
 -1      1571 3.01999E+01
 -1      1572 3.13211E+01
 -1      1573 3.14519E+01
 -1      1574 3.13892E+01
 -1      1575 3.15259E+01
 -1      1576 3.01110E+01
 -1      1577 3.00469E+01
 -1      1578 3.01427E+01
 -1      1579 3.01954E+01
 -1      1580 3.02165E+01
 -1      1581 3.13613E+01
 -1      1582 3.14405E+01
 -1      1583 3.14254E+01
 -1      1584 3.15258E+01
 -1      1585 3.03687E+01
 -1      1586 3.06081E+01
 -1      1587 3.17056E+01
 -1      1588 3.06262E+01
 -1      1589 3.10498E+01
 -1      1590 3.06262E+01
 -1      1591 3.03868E+01
 -1      1592 3.01237E+01
 -1      1593 3.01615E+01
 -1      1594 3.10895E+01
 -1      1595 3.04743E+01
 -1      1596 3.10895E+01
 -1      1597 2.81478E+01
 -1      1598 2.88577E+01
 -1      1599 3.15786E+01
 -1      1600 3.01995E+01
 -1      1601 3.08146E+01
 -1      1602 3.07006E+01
 -1      1603 3.09755E+01
 -1      1604 3.05981E+01
 -1      1605 3.06191E+01
 -1      1606 3.01277E+01
 -1      1607 3.05051E+01
 -1      1608 2.95806E+01
 -1      1609 2.99209E+01
 -1      1610 2.96243E+01
 -1      1611 2.99298E+01
 -1      1612 3.05486E+01
 -1      1613 2.85355E+01
 -1      1614 2.90943E+01
 -1      1615 3.14867E+01
 -1      1616 3.02146E+01
 -1      1617 3.02356E+01
 -1      1618 3.13699E+01
 -1      1619 3.75288E+01
 -1      1620 3.89896E+01
 -1      1621 4.26583E+01
 -1      1622 4.26583E+01
 -1      1623 3.43789E+01
 -1      1624 3.50131E+01
 -1      1625 4.10540E+01
 -1      1626 4.26583E+01
 -1      1627 4.26583E+01
 -1      1628 3.89896E+01
 -1      1629 3.92196E+01
 -1      1630 3.92196E+01
 -1      1631 3.94496E+01
 -1      1632 4.10540E+01
 -1      1633 3.75288E+01
 -1      1634 3.82592E+01
 -1      1635 3.82592E+01
 -1      1636 3.89896E+01
 -1      1637 3.89896E+01
 -1      1638 3.65880E+01
 -1      1639 3.75288E+01
 -1      1640 3.75288E+01
 -1      1641 1.47853E+01
 -1      1642 2.63491E+01
 -1      1643 2.91889E+01
 -1      1644 2.71527E+01
 -1      1645 2.51708E+01
 -1      1646 2.29311E+01
 -1      1647 2.71527E+01
 -1      1648 2.77690E+01
 -1      1649 2.91889E+01
 -1      1650 2.63491E+01
 -1      1651 2.26981E+01
 -1      1652 2.61505E+01
 -1      1653 2.61505E+01
 -1      1654 2.75704E+01
 -1      1655 1.69162E+01
 -1      1656 1.92880E+01
 -1      1657 1.82327E+01
 -1      1658 1.61019E+01
 -1      1659 2.18838E+01
 -1      1660 2.37897E+01
 -1      1661 2.37897E+01
 -1      1662 1.92871E+01
 -1      1663 2.93770E+01
 -1      1664 3.02595E+01
 -1      1665 2.98393E+01
 -1      1666 2.85849E+01
 -1      1667 3.01873E+01
 -1      1668 3.03073E+01
 -1      1669 2.89329E+01
 -1      1670 2.55066E+01
 -1      1671 2.56679E+01
 -1      1672 2.56742E+01
 -1      1673 3.10626E+01
 -1      1674 3.04595E+01
 -1      1675 3.10626E+01
 -1      1676 3.06305E+01
 -1      1677 2.88620E+01
 -1      1678 3.05979E+01
 -1      1679 3.05770E+01
 -1      1680 2.80677E+01
 -1      1681 3.07165E+01
 -1      1682 2.56286E+01
 -1      1683 2.88691E+01
 -1      1684 2.74594E+01
 -1      1685 2.24247E+01
 -1      1686 2.85387E+01
 -1      1687 3.39578E+01
 -1      1688 3.01808E+01
 -1      1689 3.01686E+01
 -1      1690 3.01821E+01
 -1      1691 2.99967E+01
 -1      1692 2.80885E+01
 -1      1693 3.00893E+01
 -1      1694 3.00893E+01
 -1      1695 3.01236E+01
 -1      1696 3.92196E+01
 -1      1697 3.89896E+01
 -1      1698 3.45492E+01
 -1      1699 3.45492E+01
 -1      1700 3.47793E+01
 -1      1701 2.69967E+01
 -1      1702 2.69647E+01
 -1      1703 2.69967E+01
 -1      1704 2.63171E+01
 -1      1705 2.63491E+01
 -1      1706 3.02381E+01
 -1      1707 3.13329E+01
 -1      1708 3.11857E+01
 -1      1709 3.22806E+01
 -1      1710 3.05152E+01
 -1      1711 3.05152E+01
 -1      1712 3.04099E+01
 -1      1713 3.05152E+01
 -1      1714 3.05152E+01
 -1      1715 3.00337E+01
 -1      1716 3.00337E+01
 -1      1717 2.99265E+01
 -1      1718 3.01008E+01
 -1      1719 3.01350E+01
 -1      1720 3.00979E+01
 -1      1721 3.03958E+01
 -1      1722 3.11146E+01
 -1      1723 3.75288E+01
 -1      1724 3.01855E+01
 -1      1725 3.00980E+01
 -1      1726 3.01124E+01
 -1      1727 3.01999E+01
 -1      1728 2.98967E+01
 -1      1729 2.99652E+01
 -1      1730 2.98783E+01
 -1      1731 2.98098E+01
 -1      1732 3.01237E+01
 -1      1733 3.02203E+01
 -1      1734 3.01763E+01
 -1      1735 3.00797E+01
 -1      1736 3.67591E+01
 -1      1737 2.99265E+01
 -1      1738 2.98193E+01
 -1      1739 2.97785E+01
 -1      1740 3.00998E+01
 -1      1741 3.00998E+01
 -1      1742 3.01811E+01
 -1      1743 3.02532E+01
 -1      1744 3.03243E+01
 -1      1745 3.02521E+01
 -1      1746 3.01443E+01
 -1      1747 3.01321E+01
 -1      1748 3.16173E+01
 -1      1749 3.15259E+01
 -1      1750 3.02769E+01
 -1      1751 3.04194E+01
 -1      1752 3.04663E+01
 -1      1753 3.06788E+01
 -1      1754 2.43743E+01
 -1      1755 3.03018E+01
 -1      1756 3.15258E+01
 -1      1757 3.14229E+01
 -1      1758 3.02581E+01
 -1      1759 3.27498E+01
 -1      1760 3.26469E+01
 -1      1761 3.01115E+01
 -1      1762 3.25778E+01
 -1      1763 3.14127E+01
 -1      1764 3.13892E+01
 -1      1765 3.25543E+01
 -1      1766 3.00992E+01
 -1      1767 3.00968E+01
 -1      1768 3.14402E+01
 -1      1769 3.14707E+01
 -1      1770 3.01198E+01
 -1      1771 3.24837E+01
 -1      1772 3.13329E+01
 -1      1773 3.27379E+01
 -1      1774 2.26832E+01
 -1      1775 3.01825E+01
 -1      1776 3.67591E+01
 -1      1777 3.04558E+01
 -1      1778 3.03505E+01
 -1      1779 3.01088E+01
 -1      1780 3.11877E+01
 -1      1781 3.14867E+01
 -1      1782 2.93021E+01
 -1      1783 2.96243E+01
 -1      1784 2.99028E+01
 -1      1785 2.95806E+01
 -1      1786 2.95806E+01
 -1      1787 2.98592E+01
 -1      1788 3.02784E+01
 -1      1789 3.02922E+01
 -1      1790 3.01273E+01
 -1      1791 3.01135E+01
 -1      1792 3.00741E+01
 -1      1793 3.14612E+01
 -1      1794 3.14865E+01
 -1      1795 3.27923E+01
 -1      1796 3.01732E+01
 -1      1797 3.03211E+01
 -1      1798 3.01435E+01
 -1      1799 3.01540E+01
 -1      1800 3.00582E+01
 -1      1801 3.00478E+01
 -1      1802 3.02225E+01
 -1      1803 3.01191E+01
 -1      1804 3.02745E+01
 -1      1805 3.05115E+01
 -1      1806 3.02477E+01
 -1      1807 3.02203E+01
 -1      1808 3.03401E+01
 -1      1809 3.02165E+01
 -1      1810 3.23187E+01
 -1      1811 3.04601E+01
 -1      1812 3.14581E+01
 -1      1813 3.15133E+01
 -1      1814 3.17956E+01
 -1      1815 3.31847E+01
 -1      1816 3.18141E+01
 -1      1817 3.15259E+01
 -1      1818 3.02595E+01
 -1      1819 3.02751E+01
 -1      1820 3.13850E+01
 -1      1821 3.21009E+01
 -1      1822 3.21243E+01
 -1      1823 2.63491E+01
 -1      1824 3.79984E+01
 -1      1825 3.43202E+01
 -1      1826 3.45809E+01
 -1      1827 3.72680E+01
 -1      1828 3.14355E+01
 -1      1829 3.04375E+01
 -1      1830 3.03598E+01
 -1      1831 3.00639E+01
 -1      1832 3.14418E+01
 -1      1833 3.06086E+01
 -1      1834 3.04478E+01
 -1      1835 3.04199E+01
 -1      1836 2.95374E+01
 -1      1837 2.95374E+01
 -1      1838 3.26918E+01
 -1      1839 3.14410E+01
 -1      1840 2.99630E+01
 -1      1841 3.03007E+01
 -1      1842 3.01957E+01
 -1      1843 2.98580E+01
 -1      1844 3.07017E+01
 -1      1845 3.18370E+01
 -1      1846 3.36791E+01
 -1      1847 3.25438E+01
 -1      1848 3.24514E+01
 -1      1849 3.13757E+01
 -1      1850 3.25113E+01
 -1      1851 3.04064E+01
 -1      1852 2.98193E+01
 -1      1853 3.02656E+01
 -1      1854 3.03068E+01
 -1      1855 3.02684E+01
 -1      1856 3.02272E+01
 -1      1857 3.00921E+01
 -1      1858 3.00875E+01
 -1      1859 3.02299E+01
 -1      1860 3.15201E+01
 -1      1861 3.01823E+01
 -1      1862 3.01810E+01
 -1      1863 3.02365E+01
 -1      1864 3.01804E+01
 -1      1865 3.14688E+01
 -1      1866 3.11857E+01
 -1      1867 3.20775E+01
 -1      1868 3.94496E+01
 -1      1869 3.04995E+01
 -1      1870 3.04971E+01
 -1      1871 3.01089E+01
 -1      1872 3.51819E+01
 -1      1873 3.02110E+01
 -1      1874 3.15202E+01
 -1      1875 2.81746E+01
 -1      1876 2.82066E+01
 -1      1877 3.09432E+01
 -1      1878 3.04948E+01
 -1      1879 3.01957E+01
 -1      1880 3.01173E+01
 -1      1881 3.02684E+01
 -1      1882 3.01995E+01
 -1      1883 3.04743E+01
 -1      1884 2.99298E+01
 -1      1885 3.00492E+01
 -1      1886 3.01705E+01
 -1      1887 3.01253E+01
 -1      1888 3.02537E+01
 -1      1889 3.03160E+01
 -1      1890 3.03782E+01
 -1      1891 3.03160E+01
 -1      1892 3.02940E+01
 -1      1893 3.12092E+01
 -1      1894 3.04249E+01
 -1      1895 3.03306E+01
 -1      1896 3.00002E+01
 -1      1897 3.01817E+01
 -1      1898 3.01441E+01
 -1      1899 3.00369E+01
 -1      1900 3.00745E+01
 -1      1901 3.02327E+01
 -1      1902 3.02051E+01
 -1      1903 3.29677E+01
 -1      1904 3.27507E+01
 -1      1905 3.15786E+01
 -1      1906 3.14429E+01
 -1      1907 3.03621E+01
 -1      1908 3.02264E+01
 -1      1909 3.03450E+01
 -1      1910 3.36970E+01
 -1      1911 3.14566E+01
 -1      1912 3.89896E+01
 -1      1913 3.01094E+01
 -1      1914 3.10895E+01
 -1      1915 3.04743E+01
 -1      1916 3.03225E+01
 -1      1917 3.04087E+01
 -1      1918 3.02146E+01
 -1      1919 3.01445E+01
 -1      1920 3.01103E+01
 -1      1921 3.01540E+01
 -1      1922 3.01358E+01
 -1      1923 3.01999E+01
 -1      1924 3.19691E+01
 -1      1925 3.02151E+01
 -1      1926 3.04558E+01
 -1      1927 2.64106E+01
 -1      1928 3.01622E+01
 -1      1929 3.02440E+01
 -1      1930 3.02581E+01
 -1      1931 3.02383E+01
 -1      1932 3.30808E+01
 -1      1933 3.02675E+01
 -1      1934 3.02844E+01
 -1      1935 3.02540E+01
 -1      1936 3.02371E+01
 -1      1937 3.01435E+01
 -1      1938 3.01277E+01
 -1      1939 3.06191E+01
 -1      1940 3.06191E+01
 -1      1941 3.04544E+01
 -1      1942 3.10895E+01
 -1      1943 3.05268E+01
 -1      1944 2.98918E+01
 -1      1945 3.04948E+01
 -1      1946 3.15801E+01
 -1      1947 3.03019E+01
 -1      1948 3.16288E+01
 -1      1949 3.28210E+01
 -1      1950 3.09142E+01
 -1      1951 3.01929E+01
 -1      1952 3.02537E+01
 -1      1953 3.04087E+01
 -1      1954 3.05486E+01
 -1      1955 3.12298E+01
 -1      1956 3.36970E+01
 -1      1957 3.03200E+01
 -1      1958 3.02411E+01
 -1      1959 3.02388E+01
 -1      1960 3.03211E+01
 -1      1961 3.06086E+01
 -1      1962 3.00492E+01
 -1      1963 3.10191E+01
 -1      1964 3.20560E+01
 -1      1965 3.12486E+01
 -1      1966 3.02118E+01
 -1      1967 3.04881E+01
 -1      1968 3.02418E+01
 -1      1969 3.02803E+01
 -1      1970 3.02737E+01
 -1      1971 2.96243E+01
 -1      1972 2.99464E+01
 -1      1973 3.00053E+01
 -1      1974 2.99464E+01
 -1      1975 3.00053E+01
 -1      1976 3.02174E+01
 -1      1977 3.03491E+01
 -1      1978 3.00642E+01
 -1      1979 3.01402E+01
 -1      1980 2.94029E+01
 -1      1981 3.05810E+01
 -1      1982 3.05810E+01
 -1      1983 2.87076E+01
 -1      1984 3.11360E+01
 -1      1985 3.11360E+01
 -1      1986 2.90279E+01
 -1      1987 3.06368E+01
 -1      1988 3.07020E+01
 -1      1989 2.94320E+01
 -1      1990 3.00365E+01
 -1      1991 3.28281E+01
 -1      1992 3.00514E+01
 -1      1993 3.02863E+01
 -1      1994 3.03621E+01
 -1      1995 3.25911E+01
 -1      1996 3.03964E+01
 -1      1997 3.03615E+01
 -1      1998 2.98329E+01
 -1      1999 3.01825E+01
 -1      2000 2.98415E+01
 -1      2001 2.98415E+01
 -1      2002 3.02548E+01
 -1      2003 3.03054E+01
 -1      2004 3.03054E+01
 -1      2005 3.02151E+01
 -1      2006 3.01719E+01
 -1      2007 3.10895E+01
 -1      2008 3.21609E+01
 -1      2009 3.02803E+01
 -1      2010 3.10219E+01
 -1      2011 3.01474E+01
 -1      2012 3.03553E+01
 -1      2013 2.65972E+01
 -1      2014 3.15711E+01
 -1      2015 4.10540E+01
 -1      2016 3.74521E+01
 -1      2017 3.13024E+01
 -1      2018 3.19346E+01
 -1      2019 3.09389E+01
 -1      2020 3.01506E+01
 -1      2021 3.02174E+01
 -1      2022 3.01322E+01
 -1      2023 3.03068E+01
 -1      2024 3.01099E+01
 -1      2025 3.03526E+01
 -1      2026 2.97221E+01
 -1      2027 3.04544E+01
 -1      2028 2.71858E+01
 -1      2029 3.03230E+01
 -1      2030 3.02383E+01
 -1      2031 3.02530E+01
 -1      2032 3.01614E+01
 -1      2033 3.02443E+01
 -1      2034 3.01822E+01
 -1      2035 3.03182E+01
 -1      2036 2.98765E+01
 -1      2037 3.04699E+01
 -1      2038 4.26583E+01
 -1      2039 4.26583E+01
 -1      2040 3.74521E+01
 -1      2041 3.02061E+01
 -1      2042 3.00053E+01
 -1      2043 3.01226E+01
 -1      2044 3.01817E+01
 -1      2045 3.01332E+01
 -1      2046 3.05212E+01
 -1      2047 3.05212E+01
 -1      2048 3.04238E+01
 -1      2049 3.04129E+01
 -1      2050 2.99642E+01
 -1      2051 3.01466E+01
 -1      2052 3.26559E+01
 -1      2053 3.08531E+01
 -1      2054 2.45556E+01
 -1      2055 3.03226E+01
 -1      2056 3.03964E+01
 -1      2057 3.25913E+01
 -1      2058 3.23916E+01
 -1      2059 2.92827E+01
 -1      2060 3.05575E+01
 -1      2061 3.04480E+01
 -1      2062 3.04258E+01
 -1      2063 3.02722E+01
 -1      2064 3.01771E+01
 -1      2065 4.10540E+01
 -1      2066 3.02098E+01
 -1      2067 3.02640E+01
 -1      2068 3.02864E+01
 -1      2069 3.01796E+01
 -1      2070 3.03331E+01
 -1      2071 3.03512E+01
 -1      2072 2.87953E+01
 -1      2073 3.03178E+01
 -1      2074 3.25676E+01
 -1      2075 3.25308E+01
 -1      2076 3.03621E+01
 -1      2077 3.24787E+01
 -1      2078 3.14891E+01
 -1      2079 2.77690E+01
 -1      2080 2.91889E+01
 -1      2081 2.77690E+01
 -1      2082 2.91889E+01
 -1      2083 2.91889E+01
 -1      2084 3.03123E+01
 -1      2085 3.01350E+01
 -1      2086 3.08477E+01
 -1      2087 3.03930E+01
 -1      2088 3.02654E+01
 -1      2089 3.07201E+01
 -1      2090 3.01759E+01
 -1      2091 3.02852E+01
 -1      2092 3.03505E+01
 -1      2093 3.02413E+01
 -1      2094 3.03073E+01
 -1      2095 3.02368E+01
 -1      2096 2.85355E+01
 -1      2097 3.18139E+01
 -1      2098 3.02356E+01
 -1      2099 3.01487E+01
 -1      2100 3.05268E+01
 -1      2101 3.14568E+01
 -1      2102 3.00642E+01
 -1      2103 3.05212E+01
 -1      2104 3.05212E+01
 -1      2105 3.05575E+01
 -1      2106 3.07095E+01
 -1      2107 2.91889E+01
 -1      2108 3.03265E+01
 -1      2109 3.01672E+01
 -1      2110 3.03470E+01
 -1      2111 3.04120E+01
 -1      2112 3.02570E+01
 -1      2113 2.77066E+01
 -1      2114 2.95455E+01
 -1      2115 3.02850E+01
 -1      2116 3.03505E+01
 -1      2117 3.03514E+01
 -1      2118 3.03437E+01
 -1      2119 3.26265E+01
 -1      2120 2.97221E+01
 -1      2121 3.02772E+01
 -1      2122 3.07320E+01
 -1      2123 3.02952E+01
 -1      2124 3.26705E+01
 -1      2125 3.24847E+01
 -1      2126 2.94093E+01
 -1      2127 2.96750E+01
 -1      2128 2.97052E+01
 -1      2129 3.03820E+01
 -1      2130 3.05486E+01
 -1      2131 3.04538E+01
 -1      2132 3.04855E+01
 -1      2133 3.03038E+01
 -1      2134 3.03615E+01
 -1      2135 3.04471E+01
 -1      2136 3.01614E+01
 -1      2137 3.04928E+01
 -1      2138 3.08616E+01
 -1      2139 3.06086E+01
 -1      2140 3.06086E+01
 -1      2141 3.08041E+01
 -1      2142 3.05906E+01
 -1      2143 3.05646E+01
 -1      2144 3.02411E+01
 -1      2145 2.76421E+01
 -1      2146 3.05398E+01
 -1      2147 3.08146E+01
 -1      2148 3.03178E+01
 -1      2149 3.05465E+01
 -1      2150 3.18898E+01
 -1      2151 3.18898E+01
 -1      2152 3.34406E+01
 -1      2153 3.15801E+01
 -1      2154 3.25457E+01
 -1      2155 3.26616E+01
 -1      2156 3.07165E+01
 -1      2157 3.41972E+01
 -1      2158 3.39578E+01
 -1      2159 3.02064E+01
 -1      2160 3.02688E+01
 -1      2161 3.03096E+01
 -1      2162 3.03387E+01
 -1      2163 3.03505E+01
 -1      2164 3.12290E+01
 -1      2165 3.04110E+01
 -1      2166 2.98405E+01
 -1      2167 3.02826E+01
 -1      2168 3.11610E+01
 -1      2169 3.00979E+01
 -1      2170 3.02188E+01
 -1      2171 3.12355E+01
 -1      2172 3.13563E+01
 -1      2173 3.07964E+01
 -1      2174 3.07964E+01
 -1      2175 3.04971E+01
 -1      2176 3.24950E+01
 -1      2177 3.06028E+01
 -1      2178 3.07403E+01
 -1      2179 2.83520E+01
 -1      2180 3.22459E+01
 -1      2181 2.97775E+01
 -1      2182 3.13699E+01
 -1      2183 2.90620E+01
 -1      2184 3.02238E+01
 -1      2185 3.04617E+01
 -1      2186 3.06210E+01
 -1      2187 3.41734E+01
 -1      2188 3.22980E+01
 -1      2189 2.98923E+01
 -1      2190 3.25457E+01
 -1      2191 3.25457E+01
 -1      2192 3.02970E+01
 -1      2193 3.03788E+01
 -1      2194 3.01919E+01
 -1      2195 3.03443E+01
 -1      2196 3.07006E+01
 -1      2197 3.04575E+01
 -1      2198 3.04653E+01
 -1      2199 3.04621E+01
 -1      2200 3.03123E+01
 -1      2201 3.21074E+01
 -1      2202 3.21074E+01
 -1      2203 3.21074E+01
 -1      2204 2.93807E+01
 -1      2205 3.08615E+01
 -1      2206 2.60303E+01
 -1      2207 2.82474E+01
 -1      2208 3.07184E+01
 -1      2209 2.78789E+01
 -1      2210 2.82700E+01
 -1      2211 3.14568E+01
 -1      2212 3.05099E+01
 -1      2213 3.05021E+01
 -1      2214 2.93131E+01
 -1      2215 2.95548E+01
 -1      2216 2.98493E+01
 -1      2217 2.96076E+01
 -1      2218 3.04595E+01
 -1      2219 3.11146E+01
 -1      2220 3.08616E+01
 -1      2221 3.03794E+01
 -1      2222 3.03788E+01
 -1      2223 3.10243E+01
 -1      2224 3.02858E+01
 -1      2225 3.02864E+01
 -1      2226 3.17263E+01
 -1      2227 3.18883E+01
 -1      2228 2.98657E+01
 -1      2229 3.08656E+01
 -1      2230 3.04376E+01
 -1      2231 2.91455E+01
 -1      2232 3.00309E+01
 -1      2233 2.98039E+01
 -1      2234 3.02007E+01
 -1      2235 3.04078E+01
 -1      2236 3.04078E+01
 -1      2237 3.05058E+01
 -1      2238 3.05058E+01
 -1      2239 3.05058E+01
 -1      2240 3.16692E+01
 -1      2241 3.04538E+01
 -1      2242 3.03782E+01
 -1      2243 3.03654E+01
 -1      2244 2.60303E+01
 -1      2245 3.04595E+01
 -1      2246 3.04595E+01
 -1      2247 3.04928E+01
 -1      2248 2.91455E+01
 -1      2249 3.06821E+01
 -1      2250 3.50131E+01
 -1      2251 3.39578E+01
 -1      2252 2.98508E+01
 -1      2253 3.02711E+01
 -1      2254 3.06039E+01
 -1      2255 2.99642E+01
 -1      2256 3.05979E+01
 -1      2257 3.06039E+01
 -1      2258 3.08477E+01
 -1      2259 2.71849E+01
 -1      2260 3.13025E+01
 -1      2261 3.13025E+01
 -1      2262 3.13025E+01
 -1      2263 3.10237E+01
 -1      2264 3.03782E+01
 -1      2265 3.12434E+01
 -1      2266 2.97775E+01
 -1      2267 3.02640E+01
 -1      2268 3.03122E+01
 -1      2269 3.05713E+01
 -1      2270 3.16692E+01
 -1      2271 3.06028E+01
 -1      2272 3.04653E+01
 -1      2273 3.12355E+01
 -1      2274 3.08619E+01
 -1      2275 3.08828E+01
 -1      2276 3.04630E+01
 -1      2277 3.08828E+01
 -1      2278 3.05821E+01
 -1      2279 3.05837E+01
 -1      2280 3.03930E+01
 -1      2281 3.04630E+01
 -1      2282 3.04630E+01
 -1      2283 3.05133E+01
 -1      2284 3.07201E+01
 -1      2285 3.10214E+01
 -1      2286 3.75288E+01
 -1      2287 3.43813E+01
 -1      2288 3.05666E+01
 -1      2289 3.00309E+01
 -1      2290 2.98039E+01
 -1      2291 3.10214E+01
 -1      2292 2.94807E+01
 -1      2293 3.17606E+01
 -1      2294 3.19798E+01
 -1      2295 3.23265E+01
 -1      2296 3.01730E+01
 -1      2297 3.65880E+01
 -1      2298 3.03782E+01
 -1      2299 3.04171E+01
 -1      2300 3.07403E+01
 -1      2301 3.17606E+01
 -1      2302 3.16441E+01
 -1      2303 3.04637E+01
 -1      2304 3.00246E+01
 -1      2305 2.98039E+01
 -1      2306 3.03938E+01
 -1      2307 2.37413E+01
 -1      2308 3.12171E+01
 -1      2309 3.10498E+01
 -1      2310 3.14363E+01
 -1      2311 3.08823E+01
 -1      2312 3.10626E+01
 -1      2313 3.17056E+01
 -1      2314 3.07020E+01
 -1      2315 3.06694E+01
 -1      2316 3.11360E+01
 -1      2317 3.13563E+01
 -1      2318 3.03505E+01
 -1      2319 3.05677E+01
 -1      2320 3.05347E+01
 -1      2321 3.11360E+01
 -1      2322 3.07020E+01
 -1      2323 3.05810E+01
 -1      2324 3.06012E+01
 -1      2325 3.06368E+01
 -1      2326 3.05713E+01
 -1      2327 3.05710E+01
 -1      2328 3.13563E+01
 -1      2329 2.93131E+01
 -1      2330 2.26660E+01
 -1      2331 3.05837E+01
 -1      2332 3.07104E+01
 -1      2333 3.07104E+01
 -1      2334 3.07201E+01
 -1      2335 2.94744E+01
 -1      2336 3.11146E+01
 -1      2337 3.01428E+01
 -1      2338 3.11146E+01
 -1      2339 3.07762E+01
 -1      2340 2.94682E+01
 -1      2341 2.88465E+01
 -1      2342 3.06368E+01
 -1      2343 3.13563E+01
 -1      2344 3.04595E+01
 -1      2345 3.67591E+01
 -1      2346 3.28064E+01
 -1      2347 2.82700E+01
 -1      2348 2.88691E+01
 -1      2349 3.18883E+01
 -1      2350 3.03122E+01
 -1      2351 3.00002E+01
 -1      2352 2.56126E+01
 -1      2353 2.58764E+01
 -3
 9999
